c php 9/9 (SAT) + rand3_160_r4.26_s1 (SAT) en variables disjuntas
p cnf 241 1015
1 2 3 4 5 6 7 8 9 0
10 11 12 13 14 15 16 17 18 0
19 20 21 22 23 24 25 26 27 0
28 29 30 31 32 33 34 35 36 0
37 38 39 40 41 42 43 44 45 0
46 47 48 49 50 51 52 53 54 0
55 56 57 58 59 60 61 62 63 0
64 65 66 67 68 69 70 71 72 0
73 74 75 76 77 78 79 80 81 0
-1 -10 0
-1 -19 0
-1 -28 0
-1 -37 0
-1 -46 0
-1 -55 0
-1 -64 0
-1 -73 0
-10 -19 0
-10 -28 0
-10 -37 0
-10 -46 0
-10 -55 0
-10 -64 0
-10 -73 0
-19 -28 0
-19 -37 0
-19 -46 0
-19 -55 0
-19 -64 0
-19 -73 0
-28 -37 0
-28 -46 0
-28 -55 0
-28 -64 0
-28 -73 0
-37 -46 0
-37 -55 0
-37 -64 0
-37 -73 0
-46 -55 0
-46 -64 0
-46 -73 0
-55 -64 0
-55 -73 0
-64 -73 0
-2 -11 0
-2 -20 0
-2 -29 0
-2 -38 0
-2 -47 0
-2 -56 0
-2 -65 0
-2 -74 0
-11 -20 0
-11 -29 0
-11 -38 0
-11 -47 0
-11 -56 0
-11 -65 0
-11 -74 0
-20 -29 0
-20 -38 0
-20 -47 0
-20 -56 0
-20 -65 0
-20 -74 0
-29 -38 0
-29 -47 0
-29 -56 0
-29 -65 0
-29 -74 0
-38 -47 0
-38 -56 0
-38 -65 0
-38 -74 0
-47 -56 0
-47 -65 0
-47 -74 0
-56 -65 0
-56 -74 0
-65 -74 0
-3 -12 0
-3 -21 0
-3 -30 0
-3 -39 0
-3 -48 0
-3 -57 0
-3 -66 0
-3 -75 0
-12 -21 0
-12 -30 0
-12 -39 0
-12 -48 0
-12 -57 0
-12 -66 0
-12 -75 0
-21 -30 0
-21 -39 0
-21 -48 0
-21 -57 0
-21 -66 0
-21 -75 0
-30 -39 0
-30 -48 0
-30 -57 0
-30 -66 0
-30 -75 0
-39 -48 0
-39 -57 0
-39 -66 0
-39 -75 0
-48 -57 0
-48 -66 0
-48 -75 0
-57 -66 0
-57 -75 0
-66 -75 0
-4 -13 0
-4 -22 0
-4 -31 0
-4 -40 0
-4 -49 0
-4 -58 0
-4 -67 0
-4 -76 0
-13 -22 0
-13 -31 0
-13 -40 0
-13 -49 0
-13 -58 0
-13 -67 0
-13 -76 0
-22 -31 0
-22 -40 0
-22 -49 0
-22 -58 0
-22 -67 0
-22 -76 0
-31 -40 0
-31 -49 0
-31 -58 0
-31 -67 0
-31 -76 0
-40 -49 0
-40 -58 0
-40 -67 0
-40 -76 0
-49 -58 0
-49 -67 0
-49 -76 0
-58 -67 0
-58 -76 0
-67 -76 0
-5 -14 0
-5 -23 0
-5 -32 0
-5 -41 0
-5 -50 0
-5 -59 0
-5 -68 0
-5 -77 0
-14 -23 0
-14 -32 0
-14 -41 0
-14 -50 0
-14 -59 0
-14 -68 0
-14 -77 0
-23 -32 0
-23 -41 0
-23 -50 0
-23 -59 0
-23 -68 0
-23 -77 0
-32 -41 0
-32 -50 0
-32 -59 0
-32 -68 0
-32 -77 0
-41 -50 0
-41 -59 0
-41 -68 0
-41 -77 0
-50 -59 0
-50 -68 0
-50 -77 0
-59 -68 0
-59 -77 0
-68 -77 0
-6 -15 0
-6 -24 0
-6 -33 0
-6 -42 0
-6 -51 0
-6 -60 0
-6 -69 0
-6 -78 0
-15 -24 0
-15 -33 0
-15 -42 0
-15 -51 0
-15 -60 0
-15 -69 0
-15 -78 0
-24 -33 0
-24 -42 0
-24 -51 0
-24 -60 0
-24 -69 0
-24 -78 0
-33 -42 0
-33 -51 0
-33 -60 0
-33 -69 0
-33 -78 0
-42 -51 0
-42 -60 0
-42 -69 0
-42 -78 0
-51 -60 0
-51 -69 0
-51 -78 0
-60 -69 0
-60 -78 0
-69 -78 0
-7 -16 0
-7 -25 0
-7 -34 0
-7 -43 0
-7 -52 0
-7 -61 0
-7 -70 0
-7 -79 0
-16 -25 0
-16 -34 0
-16 -43 0
-16 -52 0
-16 -61 0
-16 -70 0
-16 -79 0
-25 -34 0
-25 -43 0
-25 -52 0
-25 -61 0
-25 -70 0
-25 -79 0
-34 -43 0
-34 -52 0
-34 -61 0
-34 -70 0
-34 -79 0
-43 -52 0
-43 -61 0
-43 -70 0
-43 -79 0
-52 -61 0
-52 -70 0
-52 -79 0
-61 -70 0
-61 -79 0
-70 -79 0
-8 -17 0
-8 -26 0
-8 -35 0
-8 -44 0
-8 -53 0
-8 -62 0
-8 -71 0
-8 -80 0
-17 -26 0
-17 -35 0
-17 -44 0
-17 -53 0
-17 -62 0
-17 -71 0
-17 -80 0
-26 -35 0
-26 -44 0
-26 -53 0
-26 -62 0
-26 -71 0
-26 -80 0
-35 -44 0
-35 -53 0
-35 -62 0
-35 -71 0
-35 -80 0
-44 -53 0
-44 -62 0
-44 -71 0
-44 -80 0
-53 -62 0
-53 -71 0
-53 -80 0
-62 -71 0
-62 -80 0
-71 -80 0
-9 -18 0
-9 -27 0
-9 -36 0
-9 -45 0
-9 -54 0
-9 -63 0
-9 -72 0
-9 -81 0
-18 -27 0
-18 -36 0
-18 -45 0
-18 -54 0
-18 -63 0
-18 -72 0
-18 -81 0
-27 -36 0
-27 -45 0
-27 -54 0
-27 -63 0
-27 -72 0
-27 -81 0
-36 -45 0
-36 -54 0
-36 -63 0
-36 -72 0
-36 -81 0
-45 -54 0
-45 -63 0
-45 -72 0
-45 -81 0
-54 -63 0
-54 -72 0
-54 -81 0
-63 -72 0
-63 -81 0
-72 -81 0
98 -208 -116 0
-89 135 -202 0
-150 181 -82 0
89 -108 -140 0
220 -190 -179 0
217 223 -194 0
-199 -141 87 0
-224 107 157 0
-167 -190 -210 0
-209 130 -232 0
185 90 211 0
177 212 126 0
89 182 -123 0
-160 -239 -182 0
-220 -125 -85 0
229 213 222 0
83 -150 -237 0
-214 -213 134 0
-175 -133 96 0
187 173 -82 0
-241 -89 166 0
-128 -127 -223 0
147 100 86 0
153 129 -110 0
99 -125 -147 0
164 157 111 0
130 180 -146 0
237 -212 87 0
123 -211 183 0
-216 -221 214 0
-183 -164 191 0
-136 158 160 0
-158 101 -188 0
-137 115 -91 0
-241 178 227 0
-192 107 208 0
209 -238 181 0
154 -133 -226 0
-150 -179 168 0
218 92 -170 0
-167 219 125 0
169 147 -142 0
-223 -236 207 0
100 -119 164 0
169 -232 178 0
-175 -102 222 0
152 111 -226 0
-111 -93 -85 0
92 111 232 0
108 143 -178 0
204 -157 -220 0
-135 92 -157 0
162 163 -98 0
-240 110 -235 0
148 -220 -202 0
145 153 135 0
140 196 -229 0
129 -230 160 0
-230 159 -107 0
105 -87 184 0
-223 84 101 0
121 173 165 0
-120 163 126 0
236 -213 134 0
-241 -223 -90 0
-192 -94 134 0
145 -196 -98 0
198 222 -194 0
206 -188 168 0
233 86 -172 0
184 -148 152 0
83 -163 104 0
-208 139 -194 0
-168 -152 -139 0
138 -100 176 0
177 -158 134 0
-113 -200 -213 0
191 -227 127 0
171 -182 95 0
-105 -92 -124 0
107 -103 -117 0
-143 -239 102 0
165 -179 192 0
-241 -235 136 0
153 -112 225 0
237 230 -130 0
154 148 133 0
-231 -125 -196 0
-113 -228 207 0
-109 134 88 0
-177 116 -85 0
161 164 -173 0
171 -195 184 0
178 228 224 0
-153 -200 212 0
-160 -197 214 0
217 -181 216 0
185 99 -241 0
-145 -156 -186 0
-121 -127 -183 0
236 -149 -187 0
-200 221 206 0
233 172 212 0
195 -123 -211 0
-184 -135 -152 0
-215 -142 150 0
-201 94 224 0
-238 -182 126 0
-144 -166 -148 0
-89 -192 241 0
-145 130 -124 0
-119 149 230 0
194 123 -117 0
-134 160 184 0
129 -208 140 0
-137 234 -208 0
126 238 152 0
-125 197 184 0
-200 -142 181 0
233 -136 148 0
93 -163 -83 0
-120 132 230 0
89 -119 220 0
-159 179 102 0
-216 -92 -91 0
130 -115 112 0
-150 181 -131 0
233 -232 144 0
-225 -97 -191 0
219 -133 222 0
100 -238 -99 0
106 -134 93 0
-105 213 176 0
162 218 -114 0
-146 196 216 0
148 180 103 0
159 115 -179 0
-144 -168 134 0
-182 -115 231 0
-225 -230 -196 0
219 133 -156 0
186 229 215 0
218 -158 151 0
-215 -163 216 0
153 228 -165 0
-175 -102 -179 0
216 -146 96 0
-174 -228 176 0
-169 -200 124 0
226 110 -146 0
-107 -187 240 0
-228 -150 134 0
-137 -102 -126 0
-176 -206 192 0
154 -133 142 0
-175 -100 -130 0
147 -84 -179 0
-239 -230 206 0
92 -158 199 0
-159 -83 -162 0
-187 -221 223 0
159 214 230 0
123 -222 -195 0
226 189 -84 0
-105 180 -86 0
-177 -151 -205 0
119 181 111 0
148 -86 -114 0
187 213 -155 0
-189 206 192 0
105 -184 -207 0
108 -134 -140 0
-129 107 -204 0
218 -95 104 0
-94 -189 -108 0
153 -112 -94 0
-113 -104 -157 0
-209 -111 204 0
147 133 -180 0
-208 219 -221 0
241 206 -170 0
194 107 150 0
145 115 152 0
-96 -235 -186 0
187 -237 -204 0
209 202 150 0
-128 -127 -230 0
218 211 -116 0
208 112 136 0
139 -117 -219 0
-94 -133 111 0
138 -83 160 0
169 139 214 0
113 -118 117 0
-105 108 92 0
145 102 94 0
166 143 184 0
-213 110 -114 0
217 -229 151 0
-189 182 -138 0
126 222 -235 0
193 -151 87 0
-185 149 177 0
-224 221 -211 0
-89 121 -196 0
137 230 167 0
185 156 -179 0
235 -157 -236 0
-225 115 -219 0
-192 107 190 0
107 237 176 0
-110 -91 -82 0
-217 -173 -227 0
241 -144 -173 0
-225 122 -92 0
170 162 -96 0
169 188 -157 0
-169 -142 214 0
-113 -206 213 0
135 126 87 0
-167 140 -166 0
-200 131 176 0
-184 228 -150 0
-88 188 120 0
-178 -155 128 0
-121 -109 86 0
-182 -221 -140 0
143 -190 127 0
123 231 -219 0
137 -92 -130 0
219 -238 -183 0
225 -112 94 0
204 85 214 0
161 188 -116 0
-196 -163 -188 0
153 -183 133 0
-153 241 120 0
146 118 174 0
-153 85 -115 0
139 -230 -132 0
-143 132 223 0
185 101 96 0
221 -117 -115 0
-143 117 183 0
219 118 127 0
-135 -213 87 0
-241 195 239 0
162 -115 96 0
-193 -144 108 0
-113 -136 -211 0
-180 214 230 0
226 -133 -82 0
-205 -124 141 0
-223 189 -187 0
115 86 208 0
-182 93 -219 0
-168 -92 106 0
195 -126 -130 0
-232 132 -180 0
98 238 95 0
-119 155 -231 0
226 -184 -228 0
172 182 -94 0
-159 204 -163 0
153 -237 -234 0
-215 -229 174 0
167 85 -91 0
-176 231 -90 0
-103 196 221 0
174 -123 230 0
212 109 -174 0
-145 -148 -91 0
-183 -149 -228 0
-125 150 103 0
114 107 149 0
204 213 -134 0
-168 -101 214 0
162 91 -195 0
-92 -123 216 0
132 150 232 0
-239 198 96 0
84 207 -138 0
-103 92 -146 0
217 195 126 0
-207 100 165 0
241 230 128 0
-108 203 206 0
-192 -229 231 0
-208 -100 -131 0
-222 -237 -204 0
-197 -229 -124 0
-183 148 216 0
-199 -85 -93 0
-167 -135 -141 0
193 110 119 0
84 -220 160 0
-232 165 94 0
98 -157 102 0
-88 237 -128 0
175 -211 178 0
-216 -100 -186 0
-144 -143 237 0
-120 179 -158 0
-125 174 160 0
-89 213 -193 0
236 -156 152 0
-161 207 -138 0
149 141 -234 0
99 212 -156 0
97 84 87 0
225 -86 168 0
-230 133 -146 0
97 -224 128 0
186 91 226 0
-105 -159 137 0
107 119 -162 0
170 195 -93 0
112 -140 104 0
-95 111 -138 0
-145 165 -146 0
180 -198 239 0
-144 -207 -127 0
-193 218 111 0
-167 175 176 0
114 -183 212 0
-159 -222 120 0
146 -102 120 0
162 203 191 0
162 -109 -172 0
129 -131 -90 0
-175 -172 -210 0
177 178 112 0
159 -151 135 0
185 94 -156 0
83 116 -211 0
-212 101 118 0
203 -220 -194 0
100 173 -140 0
174 -116 87 0
-142 174 136 0
-124 86 -132 0
-209 -95 -204 0
116 212 -227 0
-161 228 168 0
-128 164 100 0
139 206 -146 0
156 85 192 0
226 -173 238 0
172 126 -154 0
131 -173 -227 0
-205 197 144 0
145 211 100 0
-215 -205 -226 0
-223 197 183 0
-176 194 232 0
221 173 104 0
227 116 -93 0
204 -126 -141 0
-184 238 -123 0
113 -117 166 0
-240 -141 191 0
-125 -212 -211 0
-233 134 -121 0
169 -213 -179 0
-240 195 -197 0
181 109 134 0
233 -196 183 0
233 181 -131 0
151 -126 -171 0
-89 222 -98 0
201 163 108 0
186 211 -184 0
-191 -204 -239 0
163 -117 -139 0
-137 121 108 0
-177 153 198 0
-159 196 181 0
156 181 207 0
121 219 163 0
-225 -208 -169 0
-182 -163 200 0
137 219 -234 0
-240 -95 166 0
89 186 -174 0
162 -180 -155 0
-239 126 -171 0
138 -134 238 0
-105 157 -83 0
121 -127 118 0
-215 -165 135 0
119 -124 -123 0
-167 -231 192 0
126 -163 87 0
-209 104 -90 0
117 118 -202 0
217 180 -171 0
-134 -132 -83 0
-109 214 159 0
-110 -229 166 0
-205 118 -171 0
-176 180 134 0
182 119 87 0
106 239 216 0
153 -192 -142 0
-177 -94 -169 0
97 215 -115 0
113 -144 -120 0
155 175 88 0
-202 210 232 0
-182 -221 -219 0
-143 163 215 0
99 -238 176 0
233 132 172 0
-206 213 142 0
-92 228 158 0
89 138 240 0
204 -164 96 0
194 -231 -126 0
-183 -164 -187 0
-225 138 -204 0
-208 -111 -98 0
-161 -220 -148 0
91 117 -227 0
220 -85 -150 0
154 -150 -98 0
226 -107 -210 0
-228 196 -236 0
-209 -232 93 0
217 -96 92 0
137 133 120 0
226 -172 239 0
-229 -99 149 0
190 87 -154 0
99 -191 -90 0
-119 188 -172 0
97 139 196 0
137 215 -121 0
161 -204 238 0
-135 -156 -179 0
-208 179 88 0
193 -157 167 0
-173 111 144 0
241 -223 -234 0
97 -88 118 0
106 239 151 0
-121 109 190 0
-88 -219 -106 0
106 198 103 0
-225 179 -231 0
-207 -141 -178 0
-145 198 -187 0
92 -93 238 0
219 172 -173 0
145 -125 -172 0
137 -160 -141 0
205 -164 232 0
-143 140 103 0
241 -223 133 0
196 -180 136 0
-161 -110 -156 0
99 196 141 0
-200 -235 224 0
110 199 144 0
171 -214 160 0
-84 94 194 0
101 110 159 0
-116 -131 88 0
-89 203 -218 0
98 84 117 0
220 229 183 0
153 220 -185 0
218 -204 104 0
-135 -116 214 0
233 163 -186 0
90 -98 -210 0
221 93 -187 0
-87 -159 -158 0
-215 123 150 0
-185 -95 135 0
85 -92 -107 0
-137 -126 192 0
-185 98 -109 0
-192 211 -213 0
185 195 231 0
226 -128 -240 0
170 -189 -235 0
-199 141 208 0
-152 -167 213 0
-216 124 167 0
-161 180 144 0
210 155 226 0
138 -213 102 0
177 -197 -202 0
226 -108 90 0
153 161 -204 0
169 139 168 0
-121 213 96 0
83 92 141 0
-240 -91 -138 0
194 -92 -147 0
178 195 212 0
189 192 88 0
241 -221 -211 0
-198 -155 -187 0
143 -221 223 0
217 -87 100 0
181 86 232 0
205 96 120 0
-201 106 96 0
217 194 135 0
181 -140 -163 0
-193 191 -194 0
129 -172 95 0
127 -163 -99 0
-111 141 -204 0
-217 158 -123 0
-117 190 -90 0
121 183 88 0
-234 -205 232 0
-96 -102 -224 0
153 98 127 0
-149 -220 199 0
162 -108 200 0
156 236 -178 0
194 -86 -84 0
-95 -182 -162 0
-113 106 -196 0
-224 171 86 0
92 238 -155 0
-231 -124 -202 0
234 -182 -90 0
233 198 119 0
-224 -102 -114 0
182 239 -90 0
113 156 150 0
109 -84 120 0
102 142 -106 0
-119 -230 93 0
-239 -181 111 0
139 228 125 0
236 -213 -226 0
-94 -165 -100 0
197 -94 229 0
-241 147 222 0
-112 139 -114 0
-192 196 88 0
121 177 136 0
83 -139 240 0
169 114 205 0
241 146 -157 0
143 163 135 0
-207 117 -147 0
205 109 152 0
137 118 -194 0
165 151 -146 0
-234 -147 120 0
169 -126 -148 0
-176 140 130 0
-168 187 -83 0
-232 239 -147 0
193 -172 -202 0
-109 95 -154 0
219 157 -139 0
241 183 232 0
182 -203 -186 0
-161 -124 208 0
-157 -91 -146 0
116 213 215 0
153 229 -210 0
-167 156 158 0
-208 148 -195 0
163 180 231 0
164 -109 160 0
241 84 -193 0
90 -143 195 0
-153 -239 191 0
209 124 -220 0
-193 -94 110 0
-134 229 167 0
-185 -127 104 0
-189 -142 -206 0
137 82 -148 0
-128 -196 160 0
114 -147 95 0
-184 -227 -82 0
169 133 -123 0
-217 -229 87 0
-185 -239 -83 0
130 -183 126 0
-105 146 -220 0
234 181 -156 0
-152 -119 150 0
-130 87 -138 0
164 -90 152 0
-136 181 178 0
-209 -159 -90 0
-173 -155 175 0
-121 149 173 0
97 -101 135 0
-168 239 160 0
-192 -175 -206 0
-192 -102 -156 0
-175 -123 179 0
178 237 -140 0
116 204 -106 0
124 -205 -164 0
129 115 -132 0
177 136 224 0
-161 119 -122 0
115 -150 -131 0
-137 -220 -123 0
209 -126 -100 0
-144 -119 -238 0
102 -228 -98 0
153 -224 227 0
225 -112 -114 0
-193 -225 176 0
-167 -94 128 0
-201 172 240 0
219 -133 135 0
138 -190 -104 0
97 158 95 0
-158 198 191 0
-144 -125 -179 0
-86 206 191 0
-214 -181 -234 0
-225 162 -133 0
116 118 127 0
-105 211 -100 0
217 -180 175 0
-217 -205 125 0
-168 -158 -238 0
211 -227 136 0
127 -104 -91 0
-93 -117 102 0
-130 117 173 0
-200 -103 175 0
-177 -136 83 0
185 126 -138 0
92 167 -86 0
-233 235 91 0
-145 -151 85 0
209 187 110 0
-193 -189 -140 0
-120 84 -203 0
-120 171 -235 0
-145 115 222 0
-238 -117 166 0
151 111 -90 0
-119 84 -198 0
-161 -192 182 0
171 -174 203 0
-140 150 95 0
83 144 200 0
-239 -182 -138 0
137 -166 240 0
224 -166 104 0
219 -173 103 0
108 124 -129 0
-208 198 98 0
146 -192 -176 0
-170 -235 -130 0
209 84 112 0
117 -212 159 0
161 110 -123 0
224 -128 232 0
-145 -208 192 0
226 -174 -178 0
-174 212 206 0
129 170 134 0
-216 -124 -187 0
82 -212 -96 0
150 222 88 0
-167 117 187 0
162 -92 199 0
180 -158 181 0
-112 190 -84 0
-113 -100 144 0
169 157 201 0
-224 212 200 0
89 -159 241 0
-237 -157 -188 0
