c php 9/9 (SAT) + rand3_160_r4.26_s2 (UNSAT) en variables disjuntas: la simetría es real pero kissat sigue teniendo trabajo
p cnf 241 1015
1 2 3 4 5 6 7 8 9 0
10 11 12 13 14 15 16 17 18 0
19 20 21 22 23 24 25 26 27 0
28 29 30 31 32 33 34 35 36 0
37 38 39 40 41 42 43 44 45 0
46 47 48 49 50 51 52 53 54 0
55 56 57 58 59 60 61 62 63 0
64 65 66 67 68 69 70 71 72 0
73 74 75 76 77 78 79 80 81 0
-1 -10 0
-1 -19 0
-1 -28 0
-1 -37 0
-1 -46 0
-1 -55 0
-1 -64 0
-1 -73 0
-10 -19 0
-10 -28 0
-10 -37 0
-10 -46 0
-10 -55 0
-10 -64 0
-10 -73 0
-19 -28 0
-19 -37 0
-19 -46 0
-19 -55 0
-19 -64 0
-19 -73 0
-28 -37 0
-28 -46 0
-28 -55 0
-28 -64 0
-28 -73 0
-37 -46 0
-37 -55 0
-37 -64 0
-37 -73 0
-46 -55 0
-46 -64 0
-46 -73 0
-55 -64 0
-55 -73 0
-64 -73 0
-2 -11 0
-2 -20 0
-2 -29 0
-2 -38 0
-2 -47 0
-2 -56 0
-2 -65 0
-2 -74 0
-11 -20 0
-11 -29 0
-11 -38 0
-11 -47 0
-11 -56 0
-11 -65 0
-11 -74 0
-20 -29 0
-20 -38 0
-20 -47 0
-20 -56 0
-20 -65 0
-20 -74 0
-29 -38 0
-29 -47 0
-29 -56 0
-29 -65 0
-29 -74 0
-38 -47 0
-38 -56 0
-38 -65 0
-38 -74 0
-47 -56 0
-47 -65 0
-47 -74 0
-56 -65 0
-56 -74 0
-65 -74 0
-3 -12 0
-3 -21 0
-3 -30 0
-3 -39 0
-3 -48 0
-3 -57 0
-3 -66 0
-3 -75 0
-12 -21 0
-12 -30 0
-12 -39 0
-12 -48 0
-12 -57 0
-12 -66 0
-12 -75 0
-21 -30 0
-21 -39 0
-21 -48 0
-21 -57 0
-21 -66 0
-21 -75 0
-30 -39 0
-30 -48 0
-30 -57 0
-30 -66 0
-30 -75 0
-39 -48 0
-39 -57 0
-39 -66 0
-39 -75 0
-48 -57 0
-48 -66 0
-48 -75 0
-57 -66 0
-57 -75 0
-66 -75 0
-4 -13 0
-4 -22 0
-4 -31 0
-4 -40 0
-4 -49 0
-4 -58 0
-4 -67 0
-4 -76 0
-13 -22 0
-13 -31 0
-13 -40 0
-13 -49 0
-13 -58 0
-13 -67 0
-13 -76 0
-22 -31 0
-22 -40 0
-22 -49 0
-22 -58 0
-22 -67 0
-22 -76 0
-31 -40 0
-31 -49 0
-31 -58 0
-31 -67 0
-31 -76 0
-40 -49 0
-40 -58 0
-40 -67 0
-40 -76 0
-49 -58 0
-49 -67 0
-49 -76 0
-58 -67 0
-58 -76 0
-67 -76 0
-5 -14 0
-5 -23 0
-5 -32 0
-5 -41 0
-5 -50 0
-5 -59 0
-5 -68 0
-5 -77 0
-14 -23 0
-14 -32 0
-14 -41 0
-14 -50 0
-14 -59 0
-14 -68 0
-14 -77 0
-23 -32 0
-23 -41 0
-23 -50 0
-23 -59 0
-23 -68 0
-23 -77 0
-32 -41 0
-32 -50 0
-32 -59 0
-32 -68 0
-32 -77 0
-41 -50 0
-41 -59 0
-41 -68 0
-41 -77 0
-50 -59 0
-50 -68 0
-50 -77 0
-59 -68 0
-59 -77 0
-68 -77 0
-6 -15 0
-6 -24 0
-6 -33 0
-6 -42 0
-6 -51 0
-6 -60 0
-6 -69 0
-6 -78 0
-15 -24 0
-15 -33 0
-15 -42 0
-15 -51 0
-15 -60 0
-15 -69 0
-15 -78 0
-24 -33 0
-24 -42 0
-24 -51 0
-24 -60 0
-24 -69 0
-24 -78 0
-33 -42 0
-33 -51 0
-33 -60 0
-33 -69 0
-33 -78 0
-42 -51 0
-42 -60 0
-42 -69 0
-42 -78 0
-51 -60 0
-51 -69 0
-51 -78 0
-60 -69 0
-60 -78 0
-69 -78 0
-7 -16 0
-7 -25 0
-7 -34 0
-7 -43 0
-7 -52 0
-7 -61 0
-7 -70 0
-7 -79 0
-16 -25 0
-16 -34 0
-16 -43 0
-16 -52 0
-16 -61 0
-16 -70 0
-16 -79 0
-25 -34 0
-25 -43 0
-25 -52 0
-25 -61 0
-25 -70 0
-25 -79 0
-34 -43 0
-34 -52 0
-34 -61 0
-34 -70 0
-34 -79 0
-43 -52 0
-43 -61 0
-43 -70 0
-43 -79 0
-52 -61 0
-52 -70 0
-52 -79 0
-61 -70 0
-61 -79 0
-70 -79 0
-8 -17 0
-8 -26 0
-8 -35 0
-8 -44 0
-8 -53 0
-8 -62 0
-8 -71 0
-8 -80 0
-17 -26 0
-17 -35 0
-17 -44 0
-17 -53 0
-17 -62 0
-17 -71 0
-17 -80 0
-26 -35 0
-26 -44 0
-26 -53 0
-26 -62 0
-26 -71 0
-26 -80 0
-35 -44 0
-35 -53 0
-35 -62 0
-35 -71 0
-35 -80 0
-44 -53 0
-44 -62 0
-44 -71 0
-44 -80 0
-53 -62 0
-53 -71 0
-53 -80 0
-62 -71 0
-62 -80 0
-71 -80 0
-9 -18 0
-9 -27 0
-9 -36 0
-9 -45 0
-9 -54 0
-9 -63 0
-9 -72 0
-9 -81 0
-18 -27 0
-18 -36 0
-18 -45 0
-18 -54 0
-18 -63 0
-18 -72 0
-18 -81 0
-27 -36 0
-27 -45 0
-27 -54 0
-27 -63 0
-27 -72 0
-27 -81 0
-36 -45 0
-36 -54 0
-36 -63 0
-36 -72 0
-36 -81 0
-45 -54 0
-45 -63 0
-45 -72 0
-45 -81 0
-54 -63 0
-54 -72 0
-54 -81 0
-63 -72 0
-63 -81 0
-72 -81 0
-174 160 96 0
-136 -192 -230 0
210 -221 -212 0
175 -163 -91 0
-190 127 216 0
212 126 88 0
-128 -213 -196 0
-216 -175 172 0
-184 -200 196 0
145 -209 -172 0
-224 -198 200 0
-206 -165 -124 0
-211 204 239 0
135 -211 232 0
-241 -175 -169 0
109 94 -130 0
-116 -109 -140 0
97 -144 90 0
99 174 88 0
-122 87 -114 0
145 -215 -180 0
91 110 -239 0
-236 -196 207 0
-241 -149 -203 0
-105 88 -162 0
165 182 -114 0
169 -86 -237 0
146 123 -117 0
-198 -212 -90 0
233 100 -141 0
-241 -147 -153 0
83 180 -110 0
107 141 104 0
-88 -219 200 0
193 -136 -135 0
-216 -87 -95 0
204 -214 -106 0
177 -112 -156 0
187 -86 160 0
97 -232 206 0
177 83 101 0
228 207 200 0
113 170 -167 0
-136 -88 -202 0
209 177 199 0
-216 -189 157 0
122 -103 -148 0
221 229 173 0
-104 91 -188 0
157 166 216 0
-121 190 214 0
122 213 142 0
201 -173 -228 0
-89 -180 128 0
185 -187 95 0
202 -102 222 0
130 -179 -139 0
-201 -216 84 0
-137 106 237 0
-137 -224 107 0
-232 -207 133 0
193 -213 117 0
-201 100 -206 0
-206 167 -98 0
170 210 -102 0
185 116 209 0
121 -200 224 0
82 226 -219 0
116 -219 160 0
-161 162 159 0
-105 -182 135 0
-217 -120 104 0
225 153 -141 0
110 -179 136 0
101 174 -195 0
-137 -200 -195 0
177 165 142 0
-222 -117 141 0
169 -184 -234 0
100 -164 -156 0
172 -148 183 0
129 -104 179 0
89 124 193 0
154 234 164 0
-106 -133 120 0
146 118 134 0
130 -143 93 0
-177 118 238 0
98 -215 151 0
-238 -140 111 0
-207 -182 -163 0
-241 -232 -208 0
-93 198 -180 0
114 -197 -210 0
-199 84 101 0
105 171 88 0
201 203 205 0
89 94 -210 0
-217 215 -83 0
82 117 111 0
201 -95 179 0
-216 -182 -123 0
-120 133 135 0
115 -158 192 0
225 -207 151 0
108 140 -117 0
-223 230 136 0
-149 -117 -203 0
235 -132 -139 0
-221 -105 -117 0
-200 -165 135 0
-152 -214 -187 0
-113 90 -151 0
-182 86 167 0
133 -196 -114 0
170 238 -130 0
195 168 -202 0
202 -239 125 0
-160 -229 -219 0
89 162 158 0
-169 218 100 0
229 86 120 0
232 -153 -178 0
-158 142 208 0
-167 140 -182 0
225 145 -142 0
-241 193 198 0
154 139 -203 0
-105 -216 -221 0
213 95 192 0
-208 -175 -215 0
89 138 -199 0
219 134 -115 0
-119 220 -108 0
116 117 -212 0
-169 203 224 0
171 -109 -106 0
-152 120 -154 0
169 84 -218 0
193 -101 -211 0
-143 -86 -123 0
-92 157 -172 0
138 174 -226 0
130 144 -234 0
185 138 -153 0
185 114 -214 0
177 115 228 0
196 -235 -194 0
-146 171 -234 0
-120 195 -227 0
130 -150 -172 0
-241 191 -90 0
-88 222 -148 0
145 198 240 0
-145 218 -155 0
-144 174 -211 0
235 181 215 0
-174 181 224 0
-209 126 119 0
185 126 -162 0
92 84 -149 0
107 174 -163 0
-216 -127 -165 0
-184 142 -106 0
170 95 208 0
185 -239 -205 0
229 238 167 0
153 -182 206 0
-177 -136 143 0
241 -128 -220 0
-183 123 232 0
-128 -237 -203 0
137 -206 -116 0
151 -132 103 0
228 87 111 0
179 -198 200 0
98 -205 -216 0
225 -88 156 0
-129 -200 -188 0
-121 -199 -92 0
-160 -109 240 0
-121 138 112 0
-177 239 -211 0
-87 132 -115 0
-169 94 -100 0
-208 173 157 0
-105 -120 111 0
-121 -172 -227 0
-105 219 -140 0
193 167 -91 0
-209 -216 -170 0
178 92 -139 0
113 -239 -228 0
-241 -100 127 0
162 -198 142 0
109 141 198 0
226 148 143 0
140 125 -124 0
110 -108 191 0
130 -131 -106 0
121 -150 -179 0
161 227 -214 0
182 188 -180 0
229 -190 189 0
226 -164 -187 0
-216 -199 -210 0
-176 -138 -122 0
211 -212 192 0
-160 -118 -123 0
-105 129 223 0
225 -182 159 0
-133 -123 -138 0
237 -140 -147 0
-88 -184 95 0
93 -164 207 0
129 195 135 0
84 -94 -210 0
139 205 157 0
-126 95 -98 0
89 230 -226 0
203 -238 166 0
83 -87 216 0
89 232 112 0
129 109 -171 0
-193 142 -123 0
108 144 -90 0
82 -127 -142 0
-113 -103 143 0
-145 -134 -227 0
129 181 174 0
177 226 103 0
-161 -104 -92 0
-237 -155 -210 0
241 234 -107 0
-129 115 -141 0
204 178 -102 0
-177 116 133 0
169 148 117 0
-165 93 135 0
139 101 -195 0
233 110 -188 0
-133 -213 88 0
-153 -102 -219 0
-128 -111 159 0
-89 237 -108 0
-140 199 232 0
-153 -143 -166 0
-152 131 111 0
241 164 111 0
-232 195 -132 0
97 -182 -163 0
-143 191 -186 0
-217 -96 150 0
155 -189 -124 0
89 -144 114 0
-192 -116 -90 0
93 134 -147 0
-192 -171 128 0
108 -238 144 0
-137 -96 -135 0
-216 -197 86 0
-241 217 -186 0
-200 -125 190 0
-113 -119 -158 0
89 -95 237 0
-235 115 183 0
145 -95 -169 0
97 -136 94 0
-120 206 -234 0
-217 99 108 0
146 136 152 0
-232 -82 -186 0
226 83 -189 0
137 -86 -237 0
-105 223 168 0
-169 158 119 0
226 -207 219 0
201 -232 181 0
164 -102 215 0
-240 187 230 0
-209 -150 205 0
-174 -133 103 0
-149 -156 -90 0
161 -192 -145 0
-150 149 182 0
155 -165 87 0
-168 227 232 0
179 94 -187 0
-185 -189 152 0
169 -197 -218 0
-151 139 200 0
-209 -135 -142 0
217 178 158 0
188 -228 -106 0
218 125 -132 0
-168 101 -147 0
-119 140 216 0
204 213 120 0
-89 -141 217 0
195 215 152 0
90 -176 -189 0
-215 -231 -226 0
-161 -168 -151 0
-142 101 -218 0
84 221 206 0
169 -128 -158 0
-231 164 -84 0
-145 -124 87 0
139 198 95 0
193 106 179 0
137 -205 -227 0
225 131 203 0
-153 211 -196 0
-232 -88 119 0
-186 138 144 0
-161 155 -193 0
161 -199 231 0
-185 -120 -91 0
105 -208 201 0
171 -126 -93 0
224 238 -146 0
-217 188 -115 0
-136 108 -130 0
-221 189 126 0
236 -115 88 0
225 129 118 0
132 -92 168 0
154 218 -91 0
194 -143 222 0
90 211 -206 0
234 171 228 0
202 180 192 0
-200 218 -236 0
-162 204 88 0
161 238 207 0
99 -190 163 0
-170 87 120 0
98 118 239 0
90 -155 144 0
-199 231 104 0
168 143 -146 0
-160 227 102 0
-169 222 135 0
-203 174 -115 0
233 -119 -172 0
-88 -119 -146 0
-113 114 171 0
154 147 91 0
-112 204 -224 0
-194 -215 -178 0
-197 133 -90 0
-144 -222 86 0
-216 -158 -98 0
201 155 120 0
-151 101 95 0
-94 215 -194 0
185 170 85 0
-112 212 198 0
-224 195 197 0
-121 234 239 0
225 -163 95 0
-222 125 224 0
185 117 208 0
201 -239 -149 0
-237 150 -219 0
236 -93 232 0
-198 134 -155 0
201 177 -84 0
225 203 -132 0
241 -239 -182 0
178 -182 120 0
85 109 160 0
166 149 -85 0
-181 -157 191 0
217 230 -196 0
-97 127 -202 0
193 164 -106 0
193 -113 -131 0
241 131 197 0
171 -238 -100 0
-133 181 -204 0
-231 223 -203 0
-133 174 -203 0
-132 182 -188 0
114 -215 213 0
-169 234 -232 0
231 150 111 0
-233 82 -106 0
-160 -157 216 0
-129 -147 -130 0
-230 166 238 0
-200 -171 160 0
-232 124 151 0
-177 200 176 0
-133 221 -154 0
-129 237 -82 0
84 173 -203 0
187 -139 152 0
-193 170 192 0
-129 -183 -153 0
-183 181 -108 0
145 90 206 0
145 -175 -170 0
-132 -156 -83 0
146 -127 -216 0
122 228 -126 0
137 -117 102 0
151 -99 160 0
-127 219 215 0
172 167 -102 0
145 -112 -194 0
-214 -179 152 0
-158 -149 -164 0
-151 147 191 0
226 -183 -238 0
-105 113 -187 0
113 -176 144 0
-233 105 121 0
219 -203 120 0
199 -99 192 0
187 222 -191 0
217 -144 -170 0
-216 -206 -85 0
94 230 144 0
194 235 175 0
233 -142 -108 0
-159 -229 219 0
186 -126 224 0
131 207 -191 0
235 231 -130 0
-217 225 -138 0
-219 -155 239 0
-88 174 191 0
91 -134 -84 0
-180 -204 128 0
-136 86 167 0
-161 218 -140 0
-121 -235 -83 0
233 -199 -174 0
-97 -227 -147 0
129 -223 -205 0
-118 -149 160 0
137 141 101 0
113 186 -172 0
-208 83 103 0
225 157 -109 0
-144 -214 229 0
193 -199 176 0
-129 -109 85 0
185 198 160 0
131 133 -130 0
217 -208 230 0
115 -92 -139 0
203 164 -198 0
169 -222 -236 0
197 183 165 0
-240 -107 112 0
146 164 106 0
-154 -158 -234 0
229 -139 -179 0
170 -216 229 0
-102 222 104 0
147 -230 111 0
194 -87 109 0
-153 151 -202 0
131 165 -226 0
106 99 206 0
-125 87 -90 0
210 205 222 0
-225 -166 -229 0
193 -182 -190 0
-154 82 144 0
202 203 -170 0
212 173 -170 0
241 202 -117 0
-129 155 94 0
-105 83 171 0
169 100 -189 0
-111 -206 110 0
108 156 -202 0
-201 170 171 0
89 127 224 0
-208 85 96 0
-87 144 240 0
-145 -144 -240 0
-230 110 -91 0
-113 -236 -154 0
235 -86 -85 0
147 -140 -207 0
143 -92 -187 0
113 123 157 0
121 84 209 0
-135 -188 -235 0
121 -165 158 0
115 165 -179 0
-209 -173 159 0
219 -206 -174 0
-232 -182 183 0
85 -101 -180 0
163 -206 232 0
-123 223 -83 0
115 -133 -84 0
-211 -188 -99 0
241 -152 -186 0
169 203 -198 0
113 211 -90 0
131 125 102 0
-212 135 -91 0
-224 -181 -194 0
208 -235 136 0
194 -86 221 0
-151 -174 -195 0
161 101 127 0
147 148 192 0
219 86 112 0
-177 155 111 0
154 149 -138 0
161 205 101 0
193 151 111 0
218 -180 194 0
-175 -102 -126 0
-136 203 -230 0
-241 -102 -163 0
-175 206 199 0
211 164 -83 0
147 -87 -158 0
154 138 -107 0
178 222 223 0
-88 141 -92 0
179 220 215 0
-176 167 -218 0
211 -163 -107 0
-176 179 152 0
-104 140 130 0
130 -183 150 0
121 -237 -161 0
-168 -238 -210 0
161 208 -210 0
-198 -190 112 0
97 -140 -204 0
225 -240 -216 0
-95 197 -98 0
-115 199 224 0
-143 -203 192 0
-239 -190 86 0
143 158 -211 0
-159 -117 -131 0
-166 212 -147 0
201 99 -182 0
-144 -239 203 0
171 111 240 0
-184 179 -203 0
-158 173 160 0
90 211 88 0
-128 171 125 0
215 176 -210 0
155 -174 -229 0
-241 106 -143 0
-105 173 182 0
-153 226 -222 0
-105 -126 127 0
148 164 136 0
-136 -182 -91 0
102 -203 -106 0
225 206 136 0
-241 -102 -147 0
-202 -91 112 0
186 228 -180 0
-180 -195 224 0
107 -205 -138 0
-201 -184 -231 0
201 154 -240 0
-224 85 -131 0
218 -175 -194 0
-111 220 134 0
202 -110 -189 0
-152 -222 198 0
-176 -106 192 0
185 141 86 0
194 -143 -166 0
112 -131 -218 0
172 108 -204 0
97 -159 200 0
219 -197 200 0
-105 98 197 0
186 142 87 0
-225 227 207 0
-224 -171 128 0
-104 -128 202 0
-111 -101 182 0
-144 -195 199 0
229 -109 111 0
-216 -102 -235 0
154 -204 191 0
130 -236 88 0
201 -113 -178 0
-159 91 117 0
-145 191 -178 0
153 -152 -117 0
175 229 119 0
-237 -133 208 0
-152 163 142 0
195 -163 -219 0
-185 104 112 0
202 -103 175 0
107 100 -206 0
-87 92 176 0
125 -164 -99 0
161 -174 -181 0
-225 -176 219 0
-97 -93 231 0
97 -216 -119 0
-212 -131 -186 0
-144 -155 202 0
-117 -148 223 0
-175 -206 168 0
-209 -191 126 0
187 -110 94 0
204 104 88 0
154 173 159 0
-224 110 -162 0
156 -180 112 0
98 -110 141 0
-216 -104 168 0
235 115 171 0
218 -175 -92 0
-102 229 151 0
-129 92 96 0
164 206 -195 0
-185 114 136 0
234 -128 208 0
-194 -204 192 0
120 158 -156 0
169 141 111 0
153 -184 -155 0
-184 -152 -221 0
187 -117 -156 0
227 215 -218 0
-113 -218 -210 0
112 -147 -99 0
-207 164 239 0
209 -227 192 0
-237 -171 -178 0
-145 -240 -230 0
224 -218 152 0
82 -174 -99 0
186 132 -142 0
172 -148 168 0
130 -108 -180 0
171 213 -109 0
-104 -141 165 0
146 134 -82 0
230 -115 184 0
-152 131 -154 0
-113 140 -110 0
-216 -151 -136 0
-113 -136 -120 0
147 236 -218 0
177 167 87 0
-177 -135 -206 0
240 -154 -130 0
162 -103 192 0
97 161 157 0
202 -148 151 0
241 234 228 0
-93 117 -170 0
-192 210 -114 0
-236 -183 118 0
140 223 240 0
-132 -232 -148 0
98 203 184 0
188 150 183 0
201 102 -235 0
-105 145 181 0
129 -189 238 0
89 -140 160 0
84 158 184 0
186 -133 122 0
-217 -232 184 0
-144 -86 -211 0
-239 141 -90 0
182 135 87 0
