c random 3-SAT vars=120 ratio=4.26 seed=2
p cnf 120 511
8 -111 -47 0
-95 110 78 0
82 -5 -21 0
-70 -93 -66 0
65 -5 47 0
-55 68 -41 0
66 4 23 0
-24 -58 -66 0
-95 -102 -117 0
-47 58 97 0
-36 68 95 0
114 102 -65 0
-72 116 -73 0
-63 107 -42 0
40 -117 -99 0
-103 76 -65 0
-88 66 94 0
-117 -44 -10 0
96 -35 -74 0
-88 -14 -18 0
-32 113 -115 0
5 87 47 0
-15 4 118 0
120 33 -24 0
32 1 -6 0
96 -79 5 0
40 44 -99 0
-80 97 -6 0
-61 -12 -41 0
-112 4 -67 0
42 51 44 0
-72 -78 84 0
5 86 22 0
120 82 -118 0
32 57 -11 0
-80 -36 -33 0
1 50 -15 0
97 12 13 0
-40 28 86 0
49 -117 -27 0
56 -7 -3 0
-24 -119 -85 0
120 118 47 0
40 53 -3 0
8 -100 -3 0
10 -114 63 0
-120 -29 4 0
48 25 60 0
16 109 45 0
-80 89 -51 0
-46 91 100 0
35 -19 111 0
120 -94 88 0
-55 77 30 0
74 -75 -90 0
70 -54 46 0
-104 -115 103 0
-86 50 -17 0
43 68 -20 0
97 -92 -43 0
-22 -60 31 0
-46 60 -74 0
24 -4 -50 0
-94 52 7 0
-43 -47 -91 0
-117 93 -98 0
80 -113 -105 0
2 -68 114 0
-23 3 -28 0
-28 13 78 0
-72 26 -118 0
25 62 79 0
73 98 92 0
-69 85 -1 0
-87 59 76 0
65 45 -11 0
-81 52 -97 0
-111 -49 7 0
2 -60 87 0
57 109 47 0
-89 84 87 0
-34 118 39 0
83 -108 102 0
-109 -51 -66 0
-103 -30 12 0
72 36 15 0
41 110 -105 0
112 43 22 0
82 115 92 0
35 61 -13 0
24 -87 102 0
-104 82 -35 0
-93 44 -65 0
96 -94 -92 0
-120 92 -80 0
10 51 -34 0
24 -12 46 0
49 4 22 0
-94 -118 56 0
42 -107 70 0
119 -82 47 0
43 -19 54 0
-32 -94 12 0
-8 -44 -83 0
56 -23 35 0
-67 -99 15 0
51 61 7 0
112 -108 -12 0
-64 -69 -108 0
113 68 22 0
-120 76 -65 0
10 2 -59 0
-55 86 23 0
-7 12 -105 0
4 61 62 0
7 118 -65 0
-88 31 -105 0
14 70 63 0
-44 -28 103 0
-120 110 -65 0
-14 -20 87 0
56 26 27 0
17 -13 103 0
-68 61 36 0
-71 90 -4 0
97 -6 25 0
81 -61 -34 0
-95 106 -19 0
-5 14 -89 0
-24 -116 -12 0
81 27 -42 0
-53 -36 -67 0
-86 59 111 0
54 117 -90 0
-119 -69 -76 0
-56 89 112 0
50 -59 -33 0
75 -109 -25 0
40 111 -48 0
-85 -99 -17 0
-40 -69 39 0
8 -101 -26 0
57 86 -33 0
3 74 -61 0
99 20 -9 0
-62 83 -58 0
73 -110 118 0
-119 -76 -26 0
72 -31 -51 0
-80 106 86 0
59 37 -61 0
-12 -68 29 0
56 -70 7 0
-47 66 -67 0
-64 90 91 0
19 4 6 0
-31 -38 79 0
86 -14 70 0
-40 35 91 0
72 -13 -44 0
-14 82 45 0
-62 20 -66 0
-87 82 44 0
-111 -69 -89 0
-79 102 55 0
-93 -76 79 0
-6 -3 87 0
115 -9 -73 0
-15 -30 117 0
110 52 14 0
-55 -68 84 0
48 17 74 0
-56 105 -106 0
-64 83 -17 0
91 19 -20 0
57 25 -73 0
-46 -5 -35 0
-80 108 55 0
73 -117 35 0
-60 92 -67 0
-32 -37 69 0
97 115 -15 0
50 -84 77 0
-95 50 67 0
-103 -99 95 0
-86 22 23 0
-64 -93 53 0
-92 52 -41 0
115 -52 -41 0
27 108 15 0
52 -107 78 0
-80 77 101 0
4 78 -57 0
52 -18 7 0
-82 -115 -1 0
43 27 79 0
107 -60 -77 0
-47 74 -11 0
-31 -84 103 0
60 29 111 0
21 99 -27 0
-47 -90 87 0
-24 94 79 0
11 28 -27 0
24 -79 82 0
2 74 15 0
-104 49 60 0
83 99 -19 0
-104 69 -91 0
27 -71 -37 0
76 117 119 0
-6 -20 -59 0
-110 82 -90 0
4 109 -105 0
-104 35 100 0
-55 -92 45 0
26 3 98 0
-111 -20 7 0
-62 -54 95 0
81 95 39 0
106 19 -109 0
-39 -87 69 0
120 -30 -93 0
-53 -12 86 0
-64 43 -5 0
-45 -68 -85 0
49 -99 -17 0
-79 -29 116 0
-93 -66 -26 0
-80 41 -10 0
-59 30 31 0
104 73 14 0
18 55 71 0
51 -107 -17 0
1 -14 98 0
56 107 -1 0
105 -102 20 0
-67 110 -33 0
40 -111 54 0
104 51 99 0
89 -102 68 0
-114 -10 -33 0
-108 93 70 0
82 -14 28 0
65 28 -66 0
105 10 59 0
-48 66 -29 0
72 -51 71 0
-21 102 39 0
-111 -30 -74 0
-4 78 -33 0
-52 101 92 0
-38 -116 71 0
48 58 60 0
96 -87 33 0
42 84 -50 0
-10 62 -89 0
-23 107 7 0
3 -69 -28 0
-86 -84 69 0
-79 43 1 0
-109 -3 -107 0
4 -3 38 0
116 -3 -50 0
24 -86 31 0
112 -21 92 0
75 36 -28 0
-31 -23 105 0
-16 83 -43 0
82 -101 -113 0
89 28 14 0
-40 1 -105 0
-40 -38 -6 0
-78 -12 -65 0
80 -37 77 0
69 -83 78 0
-80 9 78 0
25 4 -67 0
-56 40 14 0
-32 -61 119 0
1 -117 38 0
-32 98 -57 0
50 5 -73 0
96 -55 -4 0
-16 29 118 0
-118 35 92 0
104 -95 77 0
-23 -4 86 0
59 -84 -83 0
-30 -43 -1 0
-31 -36 111 0
-64 25 109 0
-19 -35 49 0
112 29 63 0
105 -93 6 0
-31 -53 -91 0
-8 -104 -97 0
-96 58 52 0
-105 -54 -97 0
-32 97 -22 0
-69 -75 -50 0
-8 -87 -91 0
-5 -117 -69 0
24 91 -45 0
-71 37 21 0
81 35 -29 0
-28 63 -113 0
-109 5 -98 0
13 -84 -28 0
-39 -22 -68 0
24 109 -19 0
-79 -93 -35 0
81 51 -77 0
73 -44 -75 0
-7 77 109 0
-51 -99 47 0
42 91 84 0
33 67 -34 0
-93 36 101 0
-77 109 71 0
-59 118 55 0
-116 36 33 0
106 -21 45 0
-38 44 -115 0
-85 -44 39 0
33 -99 -66 0
-38 -117 -67 0
-56 11 -117 0
-88 -62 14 0
96 -35 -58 0
105 69 71 0
-54 11 -26 0
92 -107 -105 0
90 -5 100 0
65 86 49 0
1 26 111 0
24 -36 -97 0
-44 7 76 0
49 -53 36 0
-87 107 -52 0
10 -19 -82 0
52 -35 118 0
82 59 -114 0
88 49 -117 0
68 -74 39 0
-24 82 11 0
-104 84 22 0
65 81 58 0
97 -39 25 0
98 66 -81 0
-101 20 -4 0
-24 -30 67 0
57 -54 36 0
-88 -21 -89 0
-110 -28 -107 0
56 -28 87 0
88 -78 -82 0
-117 -2 -89 0
-9 -1 -26 0
-24 97 44 0
-75 54 -2 0
-118 3 -75 0
24 16 95 0
40 35 44 0
-54 90 91 0
-32 10 -81 0
72 28 -114 0
-36 61 -58 0
65 -76 -4 0
32 19 29 0
-40 -53 37 0
-56 81 -18 0
75 -20 -43 0
-64 77 -90 0
12 -98 60 0
-32 -6 85 0
-87 51 77 0
-85 -76 -91 0
-54 -68 -17 0
-28 14 -25 0
-70 54 23 0
4 78 -17 0
-28 -99 15 0
-6 101 15 0
-5 -116 69 0
37 95 71 0
-7 52 -89 0
-63 74 5 0
97 -101 45 0
-80 30 14 0
-78 69 102 0
-101 4 79 0
-38 -58 -17 0
-120 13 -40 0
96 7 -105 0
3 -83 118 0
-45 -35 103 0
32 106 -73 0
76 5 -113 0
-64 105 102 0
-8 -114 31 0
-73 100 -33 0
-40 59 -37 0
112 -62 10 0
98 47 87 0
2 -75 -91 0
117 -85 21 0
96 106 52 0
33 45 -66 0
-104 37 5 0
-24 -84 94 0
-16 -67 -72 0
81 101 -49 0
17 18 -63 0
-32 -71 -93 0
-32 -68 -98 0
-39 107 -9 0
115 -69 60 0
33 94 63 0
73 34 -3 0
-81 -45 -65 0
2 52 45 0
-16 66 59 0
57 58 -113 0
-102 35 79 0
-70 52 -35 0
-91 -115 -41 0
88 -37 -11 0
72 73 -97 0
-87 60 -34 0
39 -75 -113 0
-78 -14 -114 0
-6 -82 78 0
27 76 -59 0
48 -37 60 0
31 -2 -81 0
-88 105 -116 0
80 -79 113 0
75 -76 69 0
50 -42 111 0
40 -106 14 0
-38 43 94 0
97 -108 -89 0
-120 75 29 0
-98 68 -58 0
-8 25 -61 0
56 42 -13 0
84 95 -25 0
12 101 -99 0
-24 -101 -75 0
73 91 70 0
-61 -2 -26 0
-61 -75 71 0
112 37 47 0
8 -51 54 0
-72 -63 98 0
-76 -44 77 0
75 -114 15 0
35 -76 -13 0
-40 1 68 0
-24 -38 -25 0
-102 -93 -105 0
-120 48 111 0
-40 -60 85 0
-76 -28 -90 0
81 -110 22 0
-48 52 -113 0
-5 4 94 0
78 93 -1 0
72 11 117 0
-93 108 -91 0
8 -31 45 0
56 -24 -51 0
50 -36 -51 0
-104 -14 63 0
32 84 5 0
8 117 118 0
-38 -26 111 0
-77 4 -114 0
-55 12 87 0
50 102 -18 0
40 35 -9 0
67 -114 -98 0
68 76 111 0
75 36 21 0
51 -101 -27 0
10 -84 -114 0
-63 -34 55 0
120 90 -4 0
-79 -100 61 0
112 77 -25 0
115 41 67 0
-70 -12 38 0
-55 -21 109 0
-48 117 -10 0
-21 79 119 0
-31 -44 -107 0
-45 -83 -82 0
-63 -68 -2 0
32 75 7 0
-105 57 47 0
97 68 23 0
57 -70 -90 0
-102 69 7 0
53 -43 -42 0
25 -90 63 0
-55 75 -25 0
-109 -99 111 0
97 -60 79 0
-111 99 -44 0
88 1 -100 0
