c random 3-SAT vars=160 ratio=4.26 seed=1
p cnf 160 682
17 -127 -35 0
-8 54 -121 0
-69 100 -1 0
8 -27 -59 0
139 -109 -98 0
136 142 -113 0
-118 -60 6 0
-143 26 76 0
-86 -109 -129 0
-128 49 -151 0
104 9 130 0
96 131 45 0
8 101 -42 0
-79 -158 -101 0
-139 -44 -4 0
148 132 141 0
2 -69 -156 0
-133 -132 53 0
-94 -52 15 0
106 92 -1 0
-160 -8 85 0
-47 -46 -142 0
66 19 5 0
72 48 -29 0
18 -44 -66 0
83 76 30 0
49 99 -65 0
156 -131 6 0
42 -130 102 0
-135 -140 133 0
-102 -83 110 0
-55 77 79 0
-77 20 -107 0
-56 34 -10 0
-160 97 146 0
-111 26 127 0
128 -157 100 0
73 -52 -145 0
-69 -98 87 0
137 11 -89 0
-86 138 44 0
88 66 -61 0
-142 -155 126 0
19 -38 83 0
88 -151 97 0
-94 -21 141 0
71 30 -145 0
-30 -12 -4 0
11 30 151 0
27 62 -97 0
123 -76 -139 0
-54 11 -76 0
81 82 -17 0
-159 29 -154 0
67 -139 -121 0
64 72 54 0
59 115 -148 0
48 -149 79 0
-149 78 -26 0
24 -6 103 0
-142 3 20 0
40 92 84 0
-39 82 45 0
155 -132 53 0
-160 -142 -9 0
-111 -13 53 0
64 -115 -17 0
117 141 -113 0
125 -107 87 0
152 5 -91 0
103 -67 71 0
2 -82 23 0
-127 58 -113 0
-87 -71 -58 0
57 -19 95 0
96 -77 53 0
-32 -119 -132 0
110 -146 46 0
90 -101 14 0
-24 -11 -43 0
26 -22 -36 0
-62 -158 21 0
84 -98 111 0
-160 -154 55 0
72 -31 144 0
156 149 -49 0
73 67 52 0
-150 -44 -115 0
-32 -147 126 0
-28 53 7 0
-96 35 -4 0
80 83 -92 0
90 -114 103 0
97 147 143 0
-72 -119 131 0
-79 -116 133 0
136 -100 135 0
104 18 -160 0
-64 -75 -105 0
-40 -46 -102 0
155 -68 -106 0
-119 140 125 0
152 91 131 0
114 -42 -130 0
-103 -54 -71 0
-134 -61 69 0
-120 13 143 0
-157 -101 45 0
-63 -85 -67 0
-8 -111 160 0
-64 49 -43 0
-38 68 149 0
113 42 -36 0
-53 79 103 0
48 -127 59 0
-56 153 -127 0
45 157 71 0
-44 116 103 0
-119 -61 100 0
152 -55 67 0
12 -82 -2 0
-39 51 149 0
8 -38 139 0
-78 98 21 0
-135 -11 -10 0
49 -34 31 0
-69 100 -50 0
152 -151 63 0
-144 -16 -110 0
138 -52 141 0
19 -157 -18 0
25 -53 12 0
-24 132 95 0
81 137 -33 0
-65 115 135 0
67 99 22 0
78 34 -98 0
-63 -87 53 0
-101 -34 150 0
-144 -149 -115 0
138 52 -75 0
105 148 134 0
137 -77 70 0
-134 -82 135 0
72 147 -84 0
-94 -21 -98 0
135 -65 15 0
-93 -147 95 0
-88 -119 43 0
145 29 -65 0
-26 -106 159 0
-147 -69 53 0
-56 -21 -45 0
-95 -125 111 0
73 -52 61 0
-94 -19 -49 0
66 -3 -98 0
-158 -149 125 0
11 -77 118 0
-78 -2 -81 0
-106 -140 142 0
78 133 149 0
42 -141 -114 0
145 108 -3 0
-24 99 -5 0
-96 -70 -124 0
38 100 30 0
67 -5 -33 0
106 132 -74 0
-108 125 111 0
24 -103 -126 0
27 -53 -59 0
-48 26 -123 0
137 -14 23 0
-13 -108 -27 0
72 -31 -13 0
-32 -23 -76 0
-128 -30 123 0
66 52 -99 0
-127 138 -140 0
160 125 -89 0
113 26 69 0
64 34 71 0
-15 -154 -105 0
106 -156 -123 0
128 121 69 0
-47 -46 -149 0
137 130 -35 0
127 31 55 0
58 -36 -138 0
-13 -52 30 0
57 -2 79 0
88 58 133 0
32 -37 36 0
-24 27 11 0
64 21 13 0
85 62 103 0
-132 29 -33 0
136 -148 70 0
-108 101 -57 0
45 141 -154 0
112 -70 6 0
-104 68 96 0
-143 140 -130 0
-8 40 -115 0
56 149 86 0
104 75 -98 0
154 -76 -155 0
-144 34 -138 0
-111 26 109 0
26 156 95 0
-29 -10 -1 0
-136 -92 -146 0
160 -63 -92 0
-144 41 -11 0
89 81 -15 0
88 107 -76 0
-88 -61 133 0
-32 -125 132 0
54 45 6 0
-86 59 -85 0
-119 50 95 0
-103 147 -69 0
-7 107 39 0
-97 -74 47 0
-40 -28 5 0
-101 -140 -59 0
62 -109 46 0
42 150 -138 0
56 -11 -49 0
138 -157 -102 0
144 -31 13 0
123 4 133 0
80 107 -35 0
-115 -82 -107 0
72 -102 52 0
-72 160 39 0
65 37 93 0
-72 4 -34 0
58 -149 -51 0
-62 51 142 0
104 20 15 0
140 -36 -34 0
-62 36 102 0
138 37 46 0
-54 -132 6 0
-160 114 158 0
81 -34 15 0
-112 -63 27 0
-32 -55 -130 0
-99 133 149 0
145 -52 -1 0
-124 -43 60 0
-142 108 -106 0
34 5 127 0
-101 12 -138 0
-87 -11 25 0
114 -45 -49 0
-151 51 -99 0
17 157 14 0
-38 74 -150 0
145 -103 -147 0
91 101 -13 0
-78 123 -82 0
72 -156 -153 0
-134 -148 93 0
86 4 -10 0
-95 150 -9 0
-22 115 140 0
93 -42 149 0
131 28 -93 0
-64 -67 -10 0
-102 -68 -147 0
-44 69 22 0
33 26 68 0
123 132 -53 0
-87 -20 133 0
81 10 -114 0
-11 -42 135 0
51 69 151 0
-158 117 15 0
3 126 -57 0
-22 11 -65 0
136 114 45 0
-126 19 84 0
160 149 47 0
-27 122 125 0
-111 -148 150 0
-127 -19 -50 0
-141 -156 -123 0
-116 -148 -43 0
-102 67 135 0
-118 -4 -12 0
-86 -54 -60 0
112 29 38 0
3 -139 79 0
-151 84 13 0
17 -76 21 0
-7 156 -47 0
94 -130 97 0
-135 -19 -105 0
-63 -62 156 0
-39 98 -77 0
-44 93 79 0
-8 132 -112 0
155 -75 71 0
-80 126 -57 0
68 60 -153 0
18 131 -75 0
16 3 6 0
144 -5 87 0
-149 52 -65 0
16 -143 47 0
105 10 145 0
-24 -78 56 0
26 38 -81 0
89 114 -12 0
31 -59 23 0
-14 30 -57 0
-64 84 -65 0
99 -117 158 0
-63 -126 -46 0
-112 137 30 0
-86 94 95 0
33 -102 131 0
-78 -141 39 0
65 -21 39 0
81 122 110 0
81 -28 -91 0
48 -50 -9 0
-94 -91 -129 0
96 97 31 0
78 -70 54 0
104 13 -75 0
2 35 -130 0
-131 20 37 0
122 -139 -113 0
19 92 -59 0
93 -35 6 0
-61 93 55 0
-43 5 -51 0
-128 -14 -123 0
35 131 -146 0
-80 147 87 0
-47 83 19 0
58 125 -65 0
75 4 111 0
145 -92 157 0
91 45 -73 0
50 -92 -146 0
-124 116 63 0
64 130 19 0
-134 -124 -145 0
-142 116 102 0
-95 113 151 0
140 92 23 0
146 35 -12 0
123 -45 -60 0
-103 157 -42 0
32 -36 85 0
-159 -60 110 0
-44 -131 -130 0
-152 53 -40 0
88 -132 -98 0
-159 114 -116 0
100 28 53 0
152 -115 102 0
152 100 -50 0
70 -45 -90 0
-8 141 -17 0
120 82 27 0
105 130 -103 0
-110 -123 -158 0
82 -36 -58 0
-56 40 27 0
-96 72 117 0
-78 115 100 0
75 100 126 0
40 138 82 0
-144 -127 -88 0
-101 -82 119 0
56 138 -153 0
-159 -14 85 0
8 105 -93 0
81 -99 -74 0
-158 45 -90 0
57 -53 157 0
-24 76 -2 0
40 -46 37 0
-134 -84 54 0
38 -43 -42 0
-86 -150 111 0
45 -82 6 0
-128 23 -9 0
36 37 -121 0
136 99 -90 0
-53 -51 -2 0
-28 133 78 0
-29 -148 85 0
-124 37 -90 0
-95 99 53 0
101 38 6 0
25 158 135 0
72 -111 -61 0
-96 -13 -88 0
16 134 -34 0
32 -63 -39 0
74 94 7 0
-121 129 151 0
-101 -140 -138 0
-62 82 134 0
18 -157 95 0
152 51 91 0
-125 132 61 0
-11 147 77 0
8 57 159 0
123 -83 15 0
113 -150 -45 0
-102 -83 -106 0
-144 57 -123 0
-127 -30 -17 0
-80 -139 -67 0
10 36 -146 0
139 -4 -69 0
73 -69 -17 0
145 -26 -129 0
-147 115 -155 0
-128 -151 12 0
136 -15 11 0
56 52 39 0
145 -91 158 0
-148 -18 68 0
109 6 -73 0
18 -110 -9 0
-38 107 -91 0
16 58 115 0
56 134 -40 0
80 -123 157 0
-54 -75 -98 0
-127 98 7 0
112 -76 86 0
-92 30 63 0
160 -142 -153 0
16 -7 37 0
25 158 70 0
-40 28 109 0
-7 -138 -25 0
25 117 22 0
-144 98 -150 0
-126 -60 -97 0
-64 117 -106 0
11 -12 157 0
138 91 -92 0
64 -44 -91 0
56 -79 -60 0
124 -83 151 0
-62 59 22 0
160 -142 52 0
115 -99 55 0
-80 -29 -75 0
18 115 60 0
-119 -154 143 0
29 118 63 0
90 -133 79 0
-3 13 113 0
20 29 78 0
-35 -50 7 0
-8 122 -137 0
17 3 36 0
139 148 102 0
72 139 -104 0
137 -123 23 0
-54 -35 133 0
152 82 -105 0
9 -17 -129 0
140 12 -106 0
-6 -78 -77 0
-134 42 69 0
-104 -14 54 0
4 -11 -26 0
-56 -45 111 0
-104 17 -28 0
-111 130 -132 0
104 114 150 0
145 -47 -159 0
89 -108 -154 0
-118 60 127 0
-71 -86 132 0
-135 43 86 0
-80 99 63 0
129 74 145 0
57 -132 21 0
96 -116 -121 0
145 -27 9 0
72 80 -123 0
88 58 87 0
-40 132 15 0
2 11 60 0
-159 -10 -57 0
113 -11 -66 0
97 114 131 0
108 111 7 0
160 -140 -130 0
-117 -74 -106 0
62 -140 142 0
136 -6 19 0
100 5 151 0
124 15 39 0
-120 25 15 0
136 113 54 0
100 -59 -82 0
-112 110 -113 0
48 -91 14 0
46 -82 -18 0
-30 60 -123 0
-136 77 -42 0
-36 109 -9 0
40 102 7 0
-153 -124 151 0
-15 -21 -143 0
72 17 46 0
-68 -139 118 0
81 -27 119 0
75 155 -97 0
113 -5 -3 0
-14 -101 -81 0
-32 25 -115 0
-143 90 5 0
11 157 -74 0
-150 -43 -121 0
153 -101 -9 0
152 117 38 0
-143 -21 -33 0
101 158 -9 0
32 75 69 0
28 -3 39 0
21 61 -25 0
-38 -149 12 0
-158 -100 30 0
58 147 44 0
155 -132 -145 0
-13 -84 -19 0
116 -13 148 0
-160 66 141 0
-31 58 -33 0
-111 115 7 0
40 96 55 0
2 -58 159 0
88 33 124 0
160 65 -76 0
62 82 54 0
-126 36 -66 0
124 28 71 0
56 37 -113 0
84 70 -65 0
-153 -66 39 0
88 -45 -67 0
-95 59 49 0
-87 106 -2 0
-151 158 -66 0
112 -91 -121 0
-28 14 -73 0
138 76 -58 0
160 102 151 0
101 -122 -105 0
-80 -43 127 0
-76 -10 -65 0
35 132 134 0
72 148 -129 0
-86 75 77 0
-127 67 -114 0
82 99 150 0
83 -28 79 0
160 3 -112 0
9 -62 114 0
-72 -158 110 0
128 43 -139 0
-112 -13 29 0
-53 148 86 0
-104 -46 23 0
-108 -61 -125 0
56 1 -67 0
-47 -115 79 0
33 -66 14 0
-103 -146 -1 0
88 52 -42 0
-136 -148 6 0
-104 -158 -2 0
49 -102 45 0
-24 65 -139 0
153 100 -75 0
-71 -38 69 0
-49 6 -57 0
83 -9 71 0
-55 100 97 0
-128 -78 -9 0
-92 -74 94 0
-40 68 92 0
16 -20 54 0
-87 158 79 0
-111 -94 -125 0
-111 -21 -75 0
-94 -42 98 0
97 156 -59 0
35 123 -25 0
43 -124 -83 0
48 34 -51 0
96 55 143 0
-80 38 -41 0
34 -69 -50 0
-56 -139 -42 0
128 -45 -19 0
-63 -38 -157 0
21 -147 -17 0
72 -143 146 0
144 -31 -33 0
-112 -144 95 0
-86 -13 47 0
-120 91 159 0
138 -52 54 0
57 -109 -23 0
16 77 14 0
-77 117 110 0
-63 -44 -98 0
-5 125 110 0
-133 -100 -153 0
-144 81 -52 0
35 37 46 0
-24 130 -19 0
136 -99 94 0
-136 -124 44 0
-87 -77 -157 0
130 -146 55 0
46 -23 -10 0
-12 -36 21 0
-49 36 92 0
-119 -22 94 0
-96 -55 2 0
104 45 -57 0
11 86 -5 0
-152 154 10 0
-64 -70 4 0
128 106 29 0
-112 -108 -59 0
-39 3 -122 0
-39 90 -154 0
-64 34 141 0
-157 -36 85 0
70 30 -9 0
-38 3 -117 0
-80 -111 101 0
90 -93 122 0
-59 69 14 0
2 63 119 0
-158 -101 -57 0
56 -85 159 0
143 -85 23 0
138 -92 22 0
27 43 -48 0
-127 117 17 0
65 -111 -95 0
-89 -154 -49 0
128 3 31 0
36 -131 78 0
80 29 -42 0
143 -47 151 0
-64 -127 111 0
145 -93 -97 0
-93 131 125 0
48 89 53 0
-135 -43 -106 0
1 -131 -15 0
69 141 7 0
-86 36 106 0
81 -11 118 0
99 -77 100 0
-31 109 -3 0
-32 -19 63 0
88 76 120 0
-143 131 119 0
8 -78 160 0
-156 -76 -107 0
