c random 3-SAT vars=80 ratio=4.26 seed=2
p cnf 80 341
8 -47 40 0
-56 -28 -75 0
65 -70 -66 0
-41 -5 47 0
-55 68 23 0
66 4 23 0
-24 -58 -66 0
-47 -68 46 0
58 -60 -52 0
32 -46 -64 0
-72 60 -59 0
-63 -22 -42 0
-65 62 79 0
27 76 -65 0
-80 -47 -44 0
7 14 -25 0
-30 -14 -18 0
-32 8 5 0
9 4 47 0
-21 3 -17 0
32 -67 -50 0
-79 5 15 0
-78 -58 63 0
-80 -61 -34 0
-12 4 -41 0
42 51 -17 0
-78 44 -3 0
33 21 -18 0
-5 -59 -66 0
-30 10 76 0
-80 -36 -33 0
1 50 -15 0
12 13 30 0
-69 -4 60 0
56 -28 -27 0
-7 -68 -3 0
-13 -67 62 0
-16 -38 48 0
40 -3 53 0
8 -76 63 0
48 1 10 0
74 60 63 0
16 -43 45 0
-61 -28 -4 0
64 48 59 0
-54 -68 38 0
-11 21 -34 0
70 74 46 0
-54 -12 5 0
43 68 38 0
67 -20 55 0
66 21 31 0
-46 60 -74 0
24 -4 -50 0
-53 52 7 0
-11 61 71 0
25 -29 -49 0
2 -60 -68 0
-28 13 78 0
-72 -28 13 0
-63 26 -76 0
56 18 -66 0
-63 10 -60 0
-63 43 -9 0
65 45 -11 0
64 18 52 0
72 -60 20 0
73 1 -69 0
40 18 -69 0
-40 41 39 0
27 -12 -51 0
12 -68 -20 0
72 -30 36 0
-49 28 15 0
10 -57 47 0
-60 -28 -57 0
48 42 31 0
-71 -18 30 0
-77 -52 44 0
-38 10 -42 0
46 51 -34 0
24 49 -12 0
56 4 22 0
42 37 77 0
-13 20 -26 0
19 33 27 0
25 -31 6 0
-48 19 79 0
9 35 -67 0
-79 -30 15 0
-63 -51 -41 0
-80 -76 -64 0
-6 59 -50 0
17 -58 -65 0
10 2 -59 0
12 4 45 0
60 61 62 0
4 7 -65 0
67 -68 -1 0
1 18 15 0
-7 60 49 0
-21 -68 -51 0
26 27 -20 0
56 17 -39 0
72 -63 35 0
14 30 -18 0
-71 75 28 0
-61 -34 -18 0
-29 77 -26 0
-70 -12 -18 0
27 -60 -42 0
-53 -36 -67 0
-16 -35 5 0
43 3 -51 0
26 -58 -17 0
-25 45 79 0
57 -61 44 0
-79 61 22 0
-40 -69 -74 0
41 4 39 0
10 -44 69 0
74 3 20 0
-36 76 -49 0
64 -39 31 0
-51 -43 30 0
72 -31 32 0
-80 56 59 0
29 -61 37 0
-70 -68 -12 0
56 66 7 0
-64 -47 -67 0
29 4 -59 0
27 69 -17 0
-14 -19 70 0
18 61 -66 0
72 -13 -44 0
-14 -36 45 0
-37 20 44 0
2 -69 -10 0
56 -31 -65 0
-46 -21 -3 0
-6 38 -73 0
-77 29 47 0
32 25 52 0
-36 29 -67 0
48 17 52 0
74 -77 -57 0
58 -77 45 0
-73 -20 -33 0
57 -35 25 0
-80 -46 -5 0
-4 71 55 0
32 59 -34 0
80 -32 69 0
-65 -37 47 0
-32 50 77 0
-47 50 67 0
72 19 23 0
-64 -41 23 0
2 52 -34 0
13 6 47 0
-23 -42 -41 0
-52 -68 31 0
64 -13 45 0
-79 52 7 0
-62 74 79 0
43 -51 63 0
36 -28 31 0
-48 -24 -70 0
80 76 -51 0
-61 76 21 0
-24 -63 -78 0
11 28 -18 0
3 35 -26 0
49 74 15 0
9 60 -59 0
-62 -68 38 0
72 -54 -4 0
-24 -6 -60 0
80 -20 -59 0
-40 -14 -20 0
16 29 -48 0
-17 79 -65 0
26 -44 -3 0
-64 -10 7 0
38 -20 46 0
-46 -12 15 0
-20 69 -73 0
56 -30 -12 0
-64 43 -5 0
-45 -68 6 0
49 -29 -79 0
16 -74 23 0
-80 41 -10 0
-59 30 31 0
73 34 14 0
-22 30 31 0
-14 22 55 0
25 -13 15 0
-49 20 -25 0
73 -35 -67 0
40 -50 54 0
74 51 54 0
73 -55 -42 0
-53 -59 -65 0
-48 -21 -68 0
56 -29 -66 0
-40 65 -21 0
24 -12 -19 0
72 -51 71 0
-29 -21 39 0
-30 -26 -33 0
-52 -4 78 0
63 -42 7 0
24 27 6 0
57 -7 -65 0
2 29 62 0
-23 38 7 0
75 4 -9 0
-79 61 -73 0
1 43 -3 0
16 68 4 0
-45 76 14 0
24 -21 31 0
-56 -5 14 0
32 -31 -23 0
-16 1 31 0
-27 -11 -73 0
-32 24 47 0
73 50 11 0
48 -6 -40 0
-78 -12 -65 0
80 -37 77 0
-24 -30 -13 0
17 -11 62 0
-48 49 18 0
26 18 44 0
34 -42 6 0
27 29 -57 0
-54 10 15 0
76 4 -66 0
-36 -11 -26 0
-24 -15 -69 0
-4 78 39 0
-14 59 76 0
-31 -30 -43 0
25 -36 15 0
80 -36 15 0
42 -76 -26 0
57 -51 -41 0
8 -31 55 0
-8 -53 -68 0
-54 35 37 0
-32 -22 4 0
-56 17 -5 0
27 -18 6 0
24 -45 -33 0
-56 -79 14 0
32 -8 -27 0
-68 -28 -58 0
-80 3 -53 0
-60 68 55 0
-39 -22 -19 0
-16 -7 4 0
51 -77 78 0
32 17 -44 0
8 -7 -28 0
-77 -20 63 0
9 -68 14 0
33 36 28 0
-53 -76 -1 0
73 -54 1 0
-78 28 -3 0
-12 44 71 0
19 -44 39 0
73 -63 69 0
50 -76 60 0
42 67 -11 0
-80 75 53 0
-64 -35 62 0
-47 11 -26 0
-38 -5 -34 0
40 -32 -56 0
34 51 -35 0
3 37 -42 0
73 -44 76 0
49 -53 7 0
-54 -52 36 0
-69 44 -58 0
29 60 -35 0
-64 -31 -27 0
49 68 39 0
54 -13 -74 0
69 22 -26 0
10 -44 -33 0
68 -19 30 0
66 20 62 0
-30 -4 68 0
57 67 36 0
-48 -54 5 0
-75 -67 -73 0
-40 -44 -35 0
-31 10 -69 0
2 70 63 0
-24 -39 44 0
42 -75 -2 0
-32 -22 3 0
59 29 7 0
56 49 13 0
-62 28 -73 0
72 25 61 0
65 -36 -58 0
19 -76 -4 0
32 -53 29 0
-40 37 -56 0
40 75 -59 0
-52 -20 -5 0
-64 12 60 0
-23 -6 45 0
72 -33 79 0
-68 54 -17 0
-28 14 -25 0
-70 54 23 0
4 78 -17 0
72 24 19 0
26 -6 44 0
37 -5 69 0
-31 57 71 0
65 -63 5 0
74 77 45 0
56 50 61 0
-78 -60 69 0
4 62 -41 0
40 63 79 0
9 -55 41 0
3 20 -45 0
9 19 79 0
32 -37 5 0
75 12 -59 0
-33 44 31 0
-40 73 11 0
