c random 3-SAT vars=160 ratio=4.26 seed=2
p cnf 160 682
-93 79 15 0
-55 -111 -149 0
129 -140 -131 0
94 -82 -10 0
-109 46 135 0
131 45 7 0
-47 -132 -115 0
-135 -94 91 0
-103 -119 115 0
64 -128 -91 0
-143 -117 119 0
-125 -84 -43 0
-130 123 158 0
54 -130 151 0
-160 -94 -88 0
28 13 -49 0
-35 -28 -59 0
16 -63 9 0
18 93 7 0
-41 6 -33 0
64 -134 -99 0
10 29 -158 0
-155 -115 126 0
-160 -68 -122 0
-24 7 -81 0
84 101 -33 0
88 -5 -156 0
65 42 -36 0
-117 -131 -9 0
152 19 -60 0
-160 -66 -72 0
2 99 -29 0
26 60 23 0
-7 -138 119 0
112 -55 -54 0
-135 -6 -14 0
123 -133 -25 0
96 -31 -75 0
106 -5 79 0
16 -151 125 0
96 2 20 0
147 126 119 0
32 89 -86 0
-55 -7 -121 0
128 96 118 0
-135 -108 76 0
41 -22 -67 0
140 148 92 0
-23 10 -107 0
76 85 135 0
-40 109 133 0
41 132 61 0
120 -92 -147 0
-8 -99 47 0
104 -106 14 0
121 -21 141 0
49 -98 -58 0
-120 -135 3 0
-56 25 156 0
-56 -143 26 0
-151 -126 52 0
112 -132 36 0
-120 19 -125 0
-125 86 -17 0
89 129 -21 0
104 35 128 0
40 -119 143 0
1 145 -138 0
35 -138 79 0
-80 81 78 0
-24 -101 54 0
-136 -39 23 0
144 72 -60 0
29 -98 55 0
20 93 -114 0
-56 -119 -114 0
96 84 61 0
-141 -36 60 0
88 -103 -153 0
19 -83 -75 0
91 -67 102 0
48 -23 98 0
8 43 112 0
73 153 83 0
-25 -52 39 0
65 37 53 0
49 -62 12 0
-96 37 157 0
17 -134 70 0
-157 -59 30 0
-126 -101 -82 0
-160 -151 -127 0
-12 117 -99 0
33 -116 -129 0
-118 3 20 0
24 90 7 0
120 122 124 0
8 13 -129 0
-136 134 -2 0
1 36 30 0
120 -14 98 0
-135 -101 -42 0
-39 52 54 0
34 -77 111 0
144 -126 70 0
27 59 -36 0
-142 149 55 0
-68 -36 -122 0
154 -51 -58 0
-140 -24 -36 0
-119 -84 54 0
-71 -133 -106 0
-32 9 -70 0
-101 5 86 0
52 -115 -33 0
89 157 -49 0
114 87 -121 0
121 -158 44 0
-79 -148 -138 0
8 81 77 0
-88 137 19 0
148 5 39 0
151 -72 -97 0
-77 61 127 0
-86 59 -101 0
144 64 -61 0
-160 112 117 0
73 58 -122 0
-24 -135 -140 0
132 14 111 0
-127 -94 -134 0
8 57 -118 0
138 53 -34 0
-38 139 -27 0
35 36 -131 0
-88 122 143 0
90 -28 -25 0
-71 39 -73 0
88 3 -137 0
112 -20 -130 0
-62 -5 -42 0
-11 76 -91 0
57 93 -145 0
49 63 -153 0
104 57 -72 0
104 33 -133 0
96 34 147 0
115 -154 -113 0
-65 90 -153 0
-39 114 -146 0
49 -69 -91 0
-160 110 -9 0
-7 141 -67 0
64 117 159 0
-64 137 -74 0
-63 93 -130 0
154 100 134 0
-93 100 143 0
-128 45 38 0
104 45 -81 0
11 3 -68 0
26 93 -82 0
-135 -46 -84 0
-103 61 -25 0
89 14 127 0
104 -158 -124 0
148 157 86 0
72 -101 125 0
-96 -55 62 0
160 -47 -139 0
-102 42 151 0
-47 -156 -122 0
56 -125 -35 0
70 -51 22 0
147 6 30 0
98 -117 119 0
17 -124 -135 0
144 -7 75 0
-48 -119 -107 0
-40 -118 -11 0
-79 -28 159 0
-40 57 31 0
-96 158 -130 0
-6 51 -34 0
-88 13 -19 0
-127 92 76 0
-24 -39 30 0
-40 -91 -146 0
-24 138 -59 0
112 86 -10 0
-128 -135 -89 0
97 11 -58 0
32 -158 -147 0
-160 -19 46 0
81 -117 61 0
28 60 117 0
145 67 62 0
59 44 -43 0
29 -27 110 0
49 -50 -25 0
40 -69 -98 0
80 146 -133 0
101 107 -99 0
148 -109 108 0
145 -83 -106 0
-135 -118 -129 0
-95 -57 -41 0
130 -131 111 0
-79 -37 -42 0
-24 48 142 0
144 -101 78 0
-52 -42 -57 0
156 -59 -66 0
-7 -103 14 0
12 -83 126 0
48 114 54 0
3 -13 -129 0
58 124 76 0
-45 14 -17 0
8 149 -145 0
122 -157 85 0
2 -6 135 0
8 151 31 0
48 28 -90 0
-112 61 -42 0
27 63 -9 0
1 -46 -61 0
-32 -22 62 0
-64 -53 -146 0
48 100 93 0
96 145 22 0
-80 -23 -11 0
-156 -74 -129 0
160 153 -26 0
-48 34 -60 0
123 97 -21 0
-96 35 52 0
88 67 36 0
-84 12 54 0
58 20 -114 0
152 29 -107 0
-52 -132 7 0
-72 -21 -138 0
-47 -30 78 0
-8 156 -27 0
-59 118 151 0
-72 -62 -85 0
-71 50 30 0
160 83 30 0
-151 114 -51 0
16 -101 -82 0
-62 110 -105 0
-136 -15 69 0
74 -108 -43 0
8 -63 33 0
-111 -35 -9 0
12 53 -66 0
-111 -90 47 0
27 -157 63 0
-56 -15 -54 0
-135 -116 5 0
-160 136 -105 0
-119 -44 109 0
-32 -38 -77 0
8 -14 156 0
-154 34 102 0
64 -14 -88 0
16 -55 13 0
-39 125 -153 0
-136 18 27 0
65 55 71 0
-151 -1 -105 0
145 2 -108 0
56 -5 -156 0
-24 142 87 0
-88 77 38 0
145 -126 138 0
120 -151 100 0
83 -21 134 0
-159 106 149 0
-128 -69 124 0
-93 -52 22 0
-68 -75 -9 0
80 -111 -64 0
-69 68 101 0
74 -84 6 0
-87 146 151 0
98 13 -106 0
-104 -108 71 0
88 -116 -137 0
-70 58 119 0
-128 -54 -61 0
136 97 77 0
107 -147 -25 0
137 44 -51 0
-87 20 -66 0
-38 59 135 0
123 132 39 0
-8 -60 136 0
114 134 71 0
9 -95 -108 0
-134 -150 -145 0
-80 -87 -70 0
-61 20 -137 0
3 140 125 0
88 -47 -77 0
-150 83 -3 0
-64 -43 6 0
58 117 14 0
112 25 98 0
56 -124 -146 0
144 50 122 0
-72 130 -115 0
-151 -7 38 0
-105 57 63 0
-80 74 -112 0
80 -118 150 0
-104 -39 -10 0
24 -127 120 0
90 -45 -12 0
143 157 -65 0
-136 107 -34 0
-55 27 -49 0
-140 108 45 0
155 -34 7 0
144 48 37 0
51 -11 87 0
73 137 -10 0
113 -62 141 0
9 130 -125 0
153 90 147 0
121 99 111 0
-119 137 -155 0
-81 123 7 0
80 157 126 0
18 -109 82 0
-89 6 39 0
17 37 158 0
9 -74 63 0
-118 150 23 0
87 62 -65 0
-79 146 21 0
-88 141 54 0
-122 93 -34 0
152 -38 -91 0
-7 -38 -65 0
-32 33 90 0
73 66 10 0
-31 123 -143 0
-113 -134 -97 0
-116 52 -9 0
-63 -141 5 0
-135 -77 -17 0
120 74 39 0
-70 20 14 0
-13 134 -113 0
104 89 4 0
-31 131 117 0
-143 114 116 0
-40 153 158 0
144 -82 14 0
-141 44 143 0
104 36 127 0
120 -158 -68 0
-156 69 -138 0
155 -12 151 0
-117 53 -74 0
120 96 -3 0
144 122 -51 0
160 -158 -101 0
97 -101 39 0
4 28 79 0
85 68 -4 0
-100 -76 110 0
136 149 -115 0
-16 46 -121 0
112 83 -25 0
112 -32 -50 0
160 50 116 0
90 -157 -19 0
-52 100 -123 0
-150 142 -122 0
-52 93 -122 0
-51 101 -107 0
33 -134 132 0
-88 153 -151 0
150 69 30 0
-152 1 -25 0
-79 -76 135 0
-48 -66 -49 0
-149 85 157 0
-119 -90 79 0
-151 43 70 0
-96 119 95 0
-52 140 -73 0
-48 156 -1 0
3 92 -122 0
106 -58 71 0
-112 89 111 0
-48 -102 -72 0
-102 100 -27 0
64 9 125 0
64 -94 -89 0
-51 -75 -2 0
65 -46 -135 0
41 147 -45 0
56 -36 21 0
70 -18 79 0
-46 138 134 0
91 86 -21 0
64 -31 -113 0
-133 -98 71 0
-77 -68 -83 0
-70 66 110 0
145 -102 -157 0
-24 32 -106 0
32 -95 63 0
-152 24 40 0
138 -122 39 0
118 -18 111 0
106 141 -110 0
136 -63 -89 0
-135 -125 -4 0
13 149 63 0
113 154 94 0
152 -61 -27 0
-78 -148 138 0
105 -45 143 0
50 126 -110 0
154 150 -49 0
-136 144 -57 0
-138 -74 158 0
-7 93 110 0
10 -53 -3 0
-99 -123 47 0
-55 5 86 0
-80 137 -59 0
-40 -154 -2 0
152 -118 -93 0
-16 -146 -66 0
48 -142 -124 0
-37 -68 79 0
56 60 20 0
32 105 -91 0
-127 2 22 0
144 76 -28 0
-63 -133 148 0
112 -118 95 0
-48 -28 4 0
104 117 79 0
50 52 -49 0
136 -127 149 0
34 -11 -58 0
122 83 -117 0
88 -141 -155 0
116 102 84 0
-159 -26 31 0
65 83 25 0
-73 -77 -153 0
148 -58 -98 0
89 -135 148 0
-21 141 23 0
66 -149 30 0
113 -6 28 0
-72 70 -121 0
50 84 -145 0
25 18 125 0
-44 6 -9 0
129 124 141 0
-144 -85 -148 0
112 -101 -109 0
-73 1 63 0
121 122 -89 0
131 92 -89 0
160 121 -36 0
-48 74 13 0
-24 2 90 0
88 19 -108 0
-30 -125 29 0
27 75 -121 0
-120 89 90 0
8 46 143 0
-127 4 15 0
-6 63 159 0
-64 -63 -159 0
-149 29 -10 0
-32 -155 -73 0
154 -5 -4 0
66 -59 -126 0
62 -11 -106 0
32 42 76 0
40 3 128 0
-54 -107 -154 0
40 -84 77 0
34 84 -98 0
-128 -92 78 0
138 -125 -93 0
-151 -101 102 0
4 -20 -99 0
82 -125 151 0
-42 142 -2 0
34 -52 -3 0
-130 -107 -18 0
160 -71 -105 0
88 122 -117 0
32 130 -9 0
50 44 21 0
-131 54 -10 0
-143 -100 -113 0
127 -154 55 0
113 -5 140 0
-70 -93 -114 0
80 20 46 0
66 67 111 0
138 5 31 0
-96 74 30 0
73 68 -57 0
80 124 20 0
112 70 30 0
137 -99 113 0
-94 -21 -45 0
-55 122 -149 0
-160 -21 -82 0
-94 125 118 0
130 83 -2 0
66 -6 -77 0
73 57 -26 0
97 141 142 0
-7 60 -11 0
98 139 134 0
-95 86 -137 0
130 -82 -26 0
-95 98 71 0
-23 59 49 0
49 -102 69 0
40 -156 -80 0
-87 -157 -129 0
80 127 -129 0
-117 -109 31 0
16 -59 -123 0
144 -159 -135 0
-14 116 -17 0
-34 118 143 0
-62 -122 111 0
-158 -109 5 0
62 77 -130 0
-78 -36 -50 0
-85 131 -66 0
120 18 -101 0
-63 -158 122 0
90 30 159 0
-103 98 -122 0
-77 92 79 0
9 130 7 0
-47 90 44 0
134 95 -129 0
74 -93 -148 0
-160 25 -62 0
-24 92 101 0
-72 145 -141 0
-24 -45 46 0
67 83 55 0
-55 -101 -10 0
21 -122 -25 0
144 125 55 0
-160 -21 -66 0
-121 -10 31 0
105 147 -99 0
-99 -114 143 0
26 -124 -57 0
-120 -103 -150 0
120 73 -159 0
-143 4 -50 0
137 -94 -113 0
-30 139 53 0
121 -29 -108 0
-71 -141 117 0
-95 -25 111 0
104 60 5 0
113 -62 -85 0
31 -50 -137 0
91 27 -123 0
16 -78 119 0
138 -116 119 0
-24 17 116 0
105 61 6 0
-144 146 126 0
-143 -90 47 0
-23 -47 121 0
-30 -20 101 0
-63 -114 118 0
148 -28 30 0
-135 -21 -154 0
73 -123 110 0
49 -155 7 0
120 -32 -97 0
-78 10 36 0
-64 110 -97 0
72 -71 -36 0
94 148 38 0
-156 -52 127 0
-71 82 61 0
114 -82 -138 0
-104 23 31 0
121 -22 94 0
26 19 -125 0
-6 11 95 0
44 -83 -18 0
80 -93 -100 0
-144 -95 138 0
-16 -12 150 0
16 -135 -38 0
-131 -50 -105 0
-63 -74 121 0
-36 -67 142 0
-94 -125 87 0
-128 -110 45 0
106 -29 13 0
123 23 7 0
73 92 78 0
-143 29 -81 0
75 -99 31 0
17 -29 60 0
-135 -23 87 0
154 34 90 0
137 -94 -11 0
-21 148 70 0
-48 11 15 0
83 125 -114 0
-104 33 55 0
153 -47 127 0
-113 -123 111 0
39 77 -75 0
88 60 30 0
72 -103 -74 0
-103 -71 -140 0
106 -36 -75 0
146 134 -137 0
-32 -137 -129 0
31 -66 -18 0
-126 83 158 0
128 -146 111 0
-156 -90 -97 0
-64 -159 -149 0
143 -137 71 0
1 -93 -18 0
105 51 -61 0
91 -67 87 0
49 -27 -99 0
90 132 -28 0
-23 -60 84 0
65 53 -1 0
149 -34 103 0
-71 50 -73 0
-32 59 -29 0
-135 -70 -55 0
-32 -55 -39 0
66 155 -137 0
96 86 6 0
-96 -54 -125 0
159 -73 -49 0
81 -22 111 0
16 80 76 0
121 -67 70 0
160 153 147 0
-12 36 -89 0
-111 129 -33 0
-155 -102 37 0
59 142 159 0
-51 -151 -67 0
17 122 103 0
107 69 102 0
120 21 -154 0
-24 64 100 0
48 -108 157 0
8 -59 79 0
3 77 103 0
105 -52 41 0
-136 -151 103 0
-63 -5 -130 0
-158 60 -9 0
101 54 6 0
