c random 3-SAT vars=120 ratio=4.26 seed=1
p cnf 120 511
-103 -18 33 0
98 27 84 0
50 -4 -98 0
90 -93 -76 0
3 116 70 0
113 -28 93 0
-64 -29 45 0
-54 -38 -29 0
-72 -93 13 0
-16 -92 -115 0
-55 -117 39 0
65 113 110 0
-32 52 23 0
-87 12 -113 0
51 66 -21 0
-109 94 6 0
65 83 -76 0
-70 -2 71 0
66 -109 -59 0
-85 -101 94 0
-66 -67 -114 0
8 -47 27 0
46 53 -26 0
-80 43 -1 0
82 75 -4 0
120 -103 -12 0
10 3 -108 0
32 -103 -97 0
-68 45 22 0
90 92 85 0
40 -54 61 0
34 -116 -27 0
-56 51 3 0
-93 -58 87 0
67 107 -81 0
-68 -51 103 0
81 -28 95 0
40 -39 10 0
17 -54 -113 0
-116 -22 -76 0
-112 5 -91 0
-56 45 -74 0
64 65 86 0
3 -52 -42 0
44 110 -73 0
108 -35 71 0
93 69 -113 0
18 -117 -35 0
33 -77 44 0
-31 -78 -92 0
99 -18 6 0
17 101 -49 0
-79 -74 119 0
73 -38 35 0
115 101 119 0
86 53 38 0
25 76 -114 0
88 -96 15 0
-56 -70 -49 0
-38 92 13 0
41 -2 119 0
9 51 77 0
59 -28 -41 0
-70 -61 -100 0
32 34 27 0
105 -84 97 0
-44 -50 6 0
39 -75 -41 0
-13 12 -75 0
-71 52 -3 0
82 94 -97 0
64 110 -65 0
42 100 86 0
41 -19 -91 0
-118 -19 -17 0
-80 93 -41 0
-96 27 -117 0
-56 -7 86 0
100 -58 71 0
59 108 -57 0
-54 34 -102 0
-46 3 76 0
36 -34 52 0
1 12 -41 0
-120 -84 94 0
41 -62 92 0
-72 -94 -36 0
29 -10 -83 0
40 -102 -21 0
48 -39 -90 0
-16 77 -66 0
-73 55 23 0
88 82 101 0
-70 -6 -66 0
81 -95 -12 0
-79 -85 -18 0
11 109 119 0
-103 42 51 0
-80 -77 28 0
117 38 -49 0
3 68 -1 0
34 37 78 0
26 -75 -107 0
-102 70 -110 0
113 -54 99 0
-16 -37 -116 0
-87 84 -2 0
104 65 -98 0
-40 1 92 0
-88 -15 -44 0
72 49 -36 0
-93 -107 -26 0
-96 67 -60 0
-40 68 -58 0
68 -50 52 0
-80 -94 96 0
96 3 84 0
81 -100 101 0
-23 2 -105 0
70 -53 -34 0
66 -60 63 0
66 76 46 0
57 -21 -65 0
-36 -52 -27 0
-31 35 -90 0
-60 -67 95 0
72 -39 -92 0
-79 -51 23 0
91 -43 -34 0
-116 85 52 0
-56 -32 25 0
75 -117 94 0
34 21 -19 0
57 -18 97 0
-15 -92 9 0
24 51 119 0
-104 88 -114 0
-93 -91 79 0
-16 -85 23 0
58 -22 52 0
-31 50 -60 0
-64 92 117 0
11 62 103 0
-37 52 -50 0
-20 4 -106 0
49 -19 70 0
2 11 108 0
-8 17 -36 0
56 4 -17 0
-88 50 -25 0
32 -35 -83 0
-120 -78 23 0
-8 -82 71 0
85 69 -26 0
10 -93 -35 0
-55 13 118 0
-7 -117 -61 0
-13 5 6 0
113 -98 -17 0
-95 42 12 0
-8 -5 -41 0
104 -34 87 0
-55 -43 -65 0
-115 -66 14 0
-72 105 -107 0
-38 -67 -115 0
26 67 53 0
-39 74 -84 0
46 54 -96 0
16 65 -118 0
9 36 101 0
-95 117 -105 0
-7 -11 103 0
-90 -74 -33 0
-103 44 52 0
-77 4 -69 0
88 -24 -18 0
104 -70 -94 0
34 92 -74 0
-102 -11 -83 0
-116 -3 -66 0
-29 77 -91 0
-47 -116 55 0
-108 93 -25 0
33 99 -2 0
113 -52 -66 0
59 -46 75 0
-16 -39 83 0
96 -100 -66 0
-70 -37 -74 0
-119 75 -53 0
-71 -57 39 0
-95 21 -2 0
-85 52 5 0
-12 109 86 0
-102 35 -82 0
-62 50 15 0
105 19 -3 0
53 101 110 0
56 -54 66 0
-52 -92 117 0
-30 12 -27 0
-62 13 14 0
1 -79 93 0
-7 69 119 0
-16 -71 -107 0
88 -62 -91 0
50 83 101 0
58 51 66 0
-116 20 110 0
-120 -54 -22 0
-70 -37 -82 0
-101 -44 14 0
-119 -94 91 0
-39 -70 108 0
19 66 91 0
-8 25 -81 0
-62 -78 53 0
64 35 61 0
-24 -23 -75 0
89 65 69 0
80 115 -98 0
33 114 43 0
-23 90 -82 0
114 -29 -65 0
42 -3 -106 0
-36 -11 111 0
49 -77 43 0
74 99 15 0
32 10 14 0
11 52 7 0
43 -93 31 0
-103 -66 15 0
35 -78 -93 0
73 -87 -93 0
120 -39 115 0
-7 -28 15 0
-36 68 -33 0
17 -14 -9 0
-72 -93 70 0
40 17 75 0
-87 -117 28 0
-103 43 38 0
107 -16 -109 0
-86 19 -82 0
-96 83 -2 0
113 -77 -4 0
-36 53 60 0
-61 -83 -1 0
98 107 -18 0
84 -35 -73 0
-32 80 -61 0
-72 100 112 0
-33 91 -113 0
-8 -115 54 0
-38 44 90 0
8 -79 -15 0
81 -23 -44 0
-16 27 3 0
-51 13 -107 0
96 -101 -43 0
-64 25 -85 0
74 -52 -35 0
20 -4 54 0
24 -103 -49 0
33 -68 118 0
117 -51 -91 0
-32 90 -1 0
31 117 23 0
75 -69 21 0
28 -67 102 0
-79 69 -90 0
-16 -51 7 0
72 105 67 0
2 -36 110 0
-72 -22 -41 0
82 71 -65 0
104 105 -51 0
73 -23 119 0
80 19 47 0
33 2 -36 0
-103 29 -17 0
80 -55 -31 0
-81 92 71 0
8 -20 52 0
88 -69 77 0
49 -26 119 0
-39 51 108 0
106 45 38 0
-80 -38 91 0
8 57 79 0
104 -119 101 0
-56 -32 14 0
-16 91 -65 0
67 -92 -50 0
-16 93 -98 0
-5 85 79 0
-71 -86 110 0
64 -36 54 0
-24 -59 -107 0
117 -106 63 0
-6 107 -10 0
-23 -50 -25 0
26 -85 -97 0
9 -107 7 0
115 -117 61 0
65 -111 51 0
-108 -52 39 0
120 -117 116 0
3 -76 102 0
-78 -76 36 0
100 -51 102 0
75 -74 -13 0
82 -44 -97 0
10 82 70 0
-21 70 -65 0
76 -115 47 0
-54 -44 -41 0
81 92 78 0
-74 -51 102 0
35 -22 11 0
17 -93 31 0
-7 -36 -39 0
-104 -106 71 0
-57 67 119 0
-103 -54 -4 0
-85 -91 -114 0
116 -15 68 0
-76 93 -26 0
-47 -79 -43 0
82 -29 63 0
-98 6 -33 0
26 -5 -68 0
-51 65 37 0
24 10 80 0
-120 3 79 0
120 -80 -81 0
-56 75 -10 0
-108 103 -25 0
-65 -77 -73 0
99 61 -74 0
68 -35 -98 0
33 -78 101 0
66 115 90 0
81 -43 111 0
-112 2 83 0
40 -70 42 0
-76 -27 -106 0
43 -106 -17 0
-38 -4 78 0
-65 -90 -97 0
-119 83 38 0
26 -60 110 0
80 -30 29 0
80 -39 51 0
40 113 -92 0
-56 -22 -4 0
-112 78 63 0
-71 83 55 0
-40 65 82 0
-96 -78 119 0
-48 -66 7 0
114 21 119 0
-55 110 -1 0
8 101 69 0
-38 61 -2 0
67 -51 30 0
-31 90 43 0
16 -24 -12 0
-39 28 13 0
57 19 -41 0
-6 12 45 0
24 26 102 0
-101 94 -29 0
-55 92 93 0
42 -59 -33 0
-119 87 79 0
-55 -107 113 0
-23 -99 15 0
120 -39 114 0
59 107 41 0
48 -61 22 0
-92 22 -17 0
81 21 79 0
-46 61 22 0
-46 118 55 0
-62 -20 -9 0
-95 -6 -25 0
-46 -101 -65 0
-104 -24 -44 0
-5 -114 103 0
-32 52 39 0
1 -38 99 0
18 19 -65 0
10 -114 -66 0
112 -116 102 0
10 66 26 0
-30 3 -18 0
101 79 47 0
12 -90 84 0
-86 44 -89 0
-41 71 119 0
-64 -7 18 0
-86 -95 66 0
62 -101 78 0
-83 109 -9 0
41 117 -3 0
-40 105 -54 0
56 38 79 0
-46 -93 74 0
42 13 -33 0
-51 -67 -90 0
-94 90 -20 0
-5 -11 -61 0
90 -67 -73 0
-71 51 -107 0
48 -22 93 0
70 46 -89 0
112 12 21 0
-120 -47 104 0
-113 74 63 0
66 -52 -57 0
16 43 -18 0
-104 -30 -80 0
-22 -66 55 0
27 -76 -65 0
16 -20 -105 0
114 -92 95 0
-47 7 -105 0
50 51 14 0
76 -58 -25 0
50 -45 76 0
-23 35 100 0
-8 71 -9 0
-43 109 14 0
96 120 -43 0
-114 22 111 0
-45 20 110 0
-101 -28 79 0
-14 -84 55 0
72 -20 36 0
50 58 92 0
75 -109 23 0
24 -16 59 0
-64 -72 -41 0
-44 103 -41 0
-63 28 -106 0
-7 -77 69 0
8 -116 4 0
-47 53 -113 0
41 -37 -116 0
90 100 -50 0
115 -45 -100 0
41 -91 -9 0
104 20 13 0
-23 -102 19 0
-82 -67 -42 0
-22 27 -21 0
56 19 -75 0
-94 -43 -41 0
89 3 23 0
84 69 63 0
91 19 -115 0
9 114 -4 0
-117 -93 31 0
67 6 103 0
-103 43 -15 0
-92 -74 84 0
-48 36 -120 0
-71 26 53 0
-57 -59 31 0
1 -106 7 0
-31 -110 54 0
-54 85 -75 0
65 -47 -89 0
82 45 111 0
-20 37 47 0
82 76 -9 0
65 -61 -69 0
53 -91 -83 0
57 67 -107 0
-111 -27 14 0
-14 26 -84 0
-117 12 -1 0
-55 -51 79 0
-86 -36 62 0
112 -35 62 0
8 -23 57 0
85 -75 -42 0
-88 -86 51 0
19 81 3 0
-102 -109 -106 0
113 -14 -18 0
117 -61 109 0
48 99 -2 0
104 83 60 0
73 -13 -65 0
-119 -78 -90 0
-112 -12 68 0
25 6 79 0
69 68 101 0
65 -89 111 0
56 18 104 0
-8 -110 3 0
104 -37 55 0
-5 -28 -106 0
-19 -46 109 0
-104 102 47 0
58 28 -20 0
-94 -91 14 0
-101 -100 61 0
