c random 3-SAT vars=80 ratio=4.26 seed=1
p cnf 80 341
-64 9 -18 0
27 -61 -4 0
50 -35 -1 0
-30 -14 4 0
-55 70 -49 0
68 71 -57 0
-30 3 -59 0
-72 13 38 0
-55 -43 -65 0
-64 25 -76 0
65 52 5 0
48 66 23 0
51 -21 4 0
-40 -79 -51 0
-70 -22 -2 0
66 74 71 0
1 -78 -35 0
27 -67 -66 0
8 -47 -26 0
53 46 -1 0
-80 43 -4 0
-24 -23 -71 0
33 10 3 0
24 -15 36 0
9 -22 -33 0
42 38 15 0
25 50 -33 0
78 3 -66 0
51 21 -65 0
-70 67 -68 0
-51 -42 55 0
40 -28 39 0
-39 10 -54 0
17 -5 -28 0
-80 73 49 0
-56 64 13 0
64 -79 50 0
37 -26 -73 0
44 -35 -49 0
-45 69 6 0
-43 69 22 0
33 44 -31 0
-71 -78 63 0
42 10 -19 0
49 -76 44 0
-47 -11 71 0
15 36 -73 0
-15 -6 -2 0
76 6 15 0
-49 14 31 0
-38 -70 62 0
-38 -27 6 0
41 -77 -9 0
-80 -70 15 0
27 34 -61 0
32 58 36 0
40 -74 30 0
24 -75 39 0
-13 12 -75 0
-71 52 -3 0
10 2 46 0
42 20 23 0
41 -20 -66 0
27 78 -5 0
-80 -71 27 0
-56 -7 32 0
71 -58 -9 0
59 44 -57 0
-54 3 63 0
-46 76 -34 0
36 12 52 0
1 -57 -41 0
-64 -44 29 0
-36 29 -10 0
48 -39 27 0
48 -16 -60 0
55 -66 23 0
7 -51 -73 0
-22 -6 45 0
-11 -12 13 0
-79 11 -18 0
56 -31 -49 0
-80 42 28 0
-16 -77 36 0
72 75 -25 0
34 37 78 0
26 -75 -58 0
-16 -22 63 0
-14 27 -74 0
18 4 -2 0
-48 -46 40 0
42 45 -57 0
49 74 52 0
72 66 -36 0
-40 67 -60 0
68 -50 -58 0
-80 9 52 0
-32 -38 -53 0
-23 -20 -51 0
-53 -34 78 0
-60 70 63 0
66 76 46 0
57 -21 -65 0
-36 -52 -27 0
-31 35 -67 0
72 -60 7 0
-79 -51 23 0
-32 -43 -34 0
80 -4 -56 0
-32 25 -22 0
34 75 -19 0
57 21 -18 0
40 52 -27 0
-64 24 30 0
-64 -28 77 0
36 23 79 0
58 -22 52 0
-31 50 -60 0
34 76 -28 0
-41 6 -1 0
26 75 -20 0
4 -19 70 0
49 11 -39 0
-6 -5 -68 0
16 25 -17 0
50 -35 -25 0
32 -55 -76 0
-72 -8 71 0
69 -26 -9 0
-79 10 13 0
-12 -27 6 0
48 41 66 0
58 69 -17 0
11 68 -33 0
17 50 34 0
-32 39 -49 0
27 -44 -51 0
75 -58 -17 0
-72 69 -75 0
67 -38 26 0
-39 74 53 0
35 69 39 0
68 -67 -41 0
74 36 -42 0
-47 -11 -49 0
8 68 -33 0
48 -47 -74 0
-44 -60 22 0
73 15 -33 0
80 -53 -13 0
27 -35 -74 0
-23 -28 -11 0
56 -63 -48 0
37 -26 31 0
-47 -10 -25 0
33 -2 -49 0
-79 -75 63 0
-39 59 6 0
-39 -1 -41 0
-70 -53 71 0
75 67 39 0
-71 21 -57 0
54 73 -2 0
50 -12 -3 0
-48 -62 -35 0
50 19 15 0
34 -3 -17 0
66 -37 53 0
56 -54 63 0
-63 -52 12 0
-30 -27 14 0
-24 -62 13 0
-7 12 69 0
-7 -14 -54 0
-16 -7 36 0
-16 -38 -12 0
-64 -15 62 0
33 26 -50 0
-64 -70 69 0
80 -45 63 0
57 35 13 0
32 17 36 0
-8 -53 -77 0
-62 -78 53 0
64 35 61 0
-24 -23 -75 0
65 69 -18 0
64 16 28 0
-69 29 -18 0
-7 -26 15 0
40 29 -1 0
67 44 29 0
16 18 -19 0
-12 6 14 0
32 11 7 0
43 52 31 0
-17 -66 15 0
35 68 -74 0
-54 51 -29 0
-77 23 71 0
56 3 -35 0
48 34 -52 0
-72 70 -65 0
-4 20 -58 0
43 75 28 0
52 38 -49 0
-78 -38 77 0
-72 17 -69 0
-56 13 55 0
48 13 78 0
-15 -5 -1 0
-46 -68 -73 0
-32 -46 80 0
-72 -6 21 0
-8 41 45 0
-38 44 54 0
-31 67 -44 0
-16 -63 66 0
27 3 23 0
-60 -43 30 0
48 25 -52 0
74 20 -35 0
24 -4 54 0
-37 -20 -49 0
-30 -14 3 0
-55 -70 -51 0
-69 31 23 0
75 28 21 0
-79 -6 -25 0
-51 -16 69 0
72 62 7 0
40 2 67 0
-41 54 -18 0
-54 -51 -58 0
26 36 20 0
80 -36 47 0
33 19 -36 0
2 29 -17 0
-31 -75 -26 0
26 10 71 0
8 52 -18 0
-31 70 -17 0
18 51 23 0
19 69 -66 0
-80 3 -27 0
8 57 79 0
41 14 -17 0
-56 -32 -65 0
-16 -28 -50 0
75 67 -1 0
73 -62 -26 0
-71 -22 30 0
64 -53 54 0
17 3 6 0
-69 -44 -51 0
57 -6 13 0
-23 -50 -25 0
9 26 -76 0
-19 79 7 0
73 37 -75 0
51 -52 -74 0
62 -7 46 0
-39 -77 -41 0
-78 36 47 0
-5 -67 -74 0
-48 2 43 0
75 -5 -11 0
58 -21 70 0
75 14 47 0
-47 66 -34 0
-32 -5 -34 0
11 -51 -74 0
17 -22 35 0
34 13 62 0
66 -27 -10 0
67 -44 -57 0
41 -21 5 0
-6 26 68 0
8 35 76 0
-79 59 -29 0
2 -33 63 0
-11 6 23 0
57 68 -63 0
24 42 10 0
80 75 61 0
-14 -74 63 0
-56 75 -10 0
-64 -78 -25 0
-71 -62 -74 0
-22 68 -58 0
34 -51 -2 0
-6 -30 -59 0
-43 19 -27 0
56 2 15 0
40 -70 42 0
11 -76 7 0
9 -38 78 0
-24 -4 -65 0
49 -68 47 0
78 -53 -10 0
-32 -31 49 0
-39 -20 47 0
40 -22 -4 0
-56 66 78 0
-40 -38 36 0
34 -29 63 0
66 -77 30 0
8 9 -38 0
2 3 44 0
72 26 -3 0
24 -75 -33 0
8 5 -72 0
73 -12 53 0
-39 28 13 0
57 19 -41 0
-6 12 45 0
16 -7 -30 0
-33 -29 15 0
-32 42 -33 0
50 -59 79 0
-32 -63 -23 0
-56 69 15 0
48 -43 47 0
17 66 -51 0
-39 -71 20 0
33 20 -11 0
41 61 55 0
41 -46 -14 0
24 -5 -25 0
-47 -46 -65 0
48 16 49 0
27 -35 39 0
-38 52 7 0
1 18 -65 0
10 19 -66 0
-70 61 -57 0
10 -30 46 0
3 -18 47 0
-31 28 47 0
-22 3 -26 0
-64 -7 -62 0
